
     Program PWSCF v.7.5 starts on  5Aug2026 at  4:29:18 

     This program is part of the open-source Quantum ESPRESSO suite
     for quantum simulation of materials; please cite
         "P. Giannozzi et al., J. Phys.:Condens. Matter 21 395502 (2009);
         "P. Giannozzi et al., J. Phys.:Condens. Matter 29 465901 (2017);
         "P. Giannozzi et al., J. Chem. Phys. 152 154105 (2020);
          URL http://www.quantum-espresso.org", 
     in publications or presentations arising from this work. More details at
     http://www.quantum-espresso.org/quote

     Parallel version (MPI), running on     1 processors

     MPI processes distributed on     1 nodes
     6349 MiB available memory on the printing compute node when the environment starts

     Reading input from al-k12-d001.in

     Current dimensions of program PWSCF are:
     Max number of different atomic species (ntypx) = 10
     Max number of k-points (npk) =  40000
     Max angular momentum in pseudopotentials (lmaxx) =  4
     Message from routine setup:
     using ibrav=0 with symmetry is DISCOURAGED, use correct ibrav instead

     Subspace diagonalization in iterative solution of the eigenvalue problem:
     a serial algorithm will be used


     G-vector sticks info
     --------------------
     sticks:   dense  smooth     PW     G-vecs:    dense   smooth      PW
     Sum         499     241     85                 7119     2445     531

     Using Slab Decomposition



     bravais-lattice index     =            0
     lattice parameter (alat)  =       5.4115  a.u.
     unit-cell volume          =     112.0560 (a.u.)^3
     number of atoms/cell      =            1
     number of atomic types    =            1
     number of electrons       =         3.00
     number of Kohn-Sham states=            6
     kinetic-energy cutoff     =      30.0000  Ry
     charge density cutoff     =     240.0000  Ry
     scf convergence threshold =      1.0E-10
     mixing beta               =       0.7000
     number of iterations used =            8  plain     mixing
     Exchange-correlation= PBE
                           (   1   4   3   4   0   0   0)

     celldm(1)=   5.411488  celldm(2)=   0.000000  celldm(3)=   0.000000
     celldm(4)=   0.000000  celldm(5)=   0.000000  celldm(6)=   0.000000

     crystal axes: (cart. coord. in units of alat)
               a(1) = (  -0.707107   0.000000   0.707107 )  
               a(2) = (   0.000000   0.707107   0.707107 )  
               a(3) = (  -0.707107   0.707107   0.000000 )  

     reciprocal axes: (cart. coord. in units 2 pi/alat)
               b(1) = ( -0.707107 -0.707107  0.707107 )  
               b(2) = (  0.707107  0.707107  0.707107 )  
               b(3) = ( -0.707107  0.707107 -0.707107 )  


     PseudoPot. # 1 for Al read from file:
     ./pseudo/Al.pbe-n-rrkjus_psl.1.0.0.UPF
     MD5 check sum: bbe9f3f15d9b3b5ab9a58e4859ebdbfe
     Pseudo is Ultrasoft + core correction, Zval =  3.0
     Generated using &quot;atomic&quot; code by A. Dal Corso  v.6.3
     Using radial grid of 1135 points,  6 beta functions with: 
                l(1) =   0
                l(2) =   0
                l(3) =   1
                l(4) =   1
                l(5) =   2
                l(6) =   2
     Q(r) pseudized with 0 coefficients 


     atomic species   valence    mass     pseudopotential
     Al                3.00    26.98154     Al( 1.00)

     48 Sym. Ops., with inversion, found


                                    s                        frac. trans.

      isym =  1     identity                                     

 cryst.   s( 1) = (     1          0          0      )
                  (     0          1          0      )
                  (     0          0          1      )

 cart.    s( 1) = (  1.0000000  0.0000000  0.0000000 )
                  (  0.0000000  1.0000000  0.0000000 )
                  (  0.0000000  0.0000000  1.0000000 )


      isym =  2     180 deg rotation - cart. axis [0,0,1]        

 cryst.   s( 2) = (     0          1         -1      )
                  (     1          0         -1      )
                  (     0          0         -1      )

 cart.    s( 2) = ( -1.0000000  0.0000000  0.0000000 )
                  (  0.0000000 -1.0000000  0.0000000 )
                  (  0.0000000  0.0000000  1.0000000 )


      isym =  3     180 deg rotation - cart. axis [0,1,0]        

 cryst.   s( 3) = (    -1          0          0      )
                  (    -1          0          1      )
                  (    -1          1          0      )

 cart.    s( 3) = ( -1.0000000  0.0000000  0.0000000 )
                  (  0.0000000  1.0000000  0.0000000 )
                  (  0.0000000  0.0000000 -1.0000000 )


      isym =  4     180 deg rotation - cart. axis [1,0,0]        

 cryst.   s( 4) = (     0         -1          1      )
                  (     0         -1          0      )
                  (     1         -1          0      )

 cart.    s( 4) = (  1.0000000  0.0000000  0.0000000 )
                  (  0.0000000 -1.0000000  0.0000000 )
                  (  0.0000000  0.0000000 -1.0000000 )


      isym =  5     180 deg rotation - cart. axis [1,1,0]        

 cryst.   s( 5) = (     0         -1          0      )
                  (    -1          0          0      )
                  (     0          0         -1      )

 cart.    s( 5) = (  0.0000000  1.0000000  0.0000000 )
                  (  1.0000000  0.0000000  0.0000000 )
                  (  0.0000000  0.0000000 -1.0000000 )


      isym =  6     180 deg rotation - cart. axis [1,-1,0]       

 cryst.   s( 6) = (    -1          0          1      )
                  (     0         -1          1      )
                  (     0          0          1      )

 cart.    s( 6) = (  0.0000000 -1.0000000  0.0000000 )
                  ( -1.0000000  0.0000000  0.0000000 )
                  (  0.0000000  0.0000000 -1.0000000 )


      isym =  7      90 deg rotation - cart. axis [0,0,-1]       

 cryst.   s( 7) = (     0          1          0      )
                  (     0          1         -1      )
                  (    -1          1          0      )

 cart.    s( 7) = (  0.0000000  1.0000000  0.0000000 )
                  ( -1.0000000  0.0000000  0.0000000 )
                  (  0.0000000  0.0000000  1.0000000 )


      isym =  8      90 deg rotation - cart. axis [0,0,1]        

 cryst.   s( 8) = (     1          0         -1      )
                  (     1          0          0      )
                  (     1         -1          0      )

 cart.    s( 8) = (  0.0000000 -1.0000000  0.0000000 )
                  (  1.0000000  0.0000000  0.0000000 )
                  (  0.0000000  0.0000000  1.0000000 )


      isym =  9     180 deg rotation - cart. axis [1,0,1]        

 cryst.   s( 9) = (    -1          0          0      )
                  (     0          0         -1      )
                  (     0         -1          0      )

 cart.    s( 9) = (  0.0000000  0.0000000  1.0000000 )
                  (  0.0000000 -1.0000000  0.0000000 )
                  (  1.0000000  0.0000000  0.0000000 )


      isym = 10     180 deg rotation - cart. axis [-1,0,1]       

 cryst.   s(10) = (     1          0          0      )
                  (     1         -1          0      )
                  (     1          0         -1      )

 cart.    s(10) = (  0.0000000  0.0000000 -1.0000000 )
                  (  0.0000000 -1.0000000  0.0000000 )
                  ( -1.0000000  0.0000000  0.0000000 )


      isym = 11      90 deg rotation - cart. axis [0,1,0]        

 cryst.   s(11) = (     0          1         -1      )
                  (    -1          1          0      )
                  (     0          1          0      )

 cart.    s(11) = (  0.0000000  0.0000000  1.0000000 )
                  (  0.0000000  1.0000000  0.0000000 )
                  ( -1.0000000  0.0000000  0.0000000 )


      isym = 12      90 deg rotation - cart. axis [0,-1,0]       

 cryst.   s(12) = (     0         -1          1      )
                  (     0          0          1      )
                  (    -1          0          1      )

 cart.    s(12) = (  0.0000000  0.0000000 -1.0000000 )
                  (  0.0000000  1.0000000  0.0000000 )
                  (  1.0000000  0.0000000  0.0000000 )


      isym = 13     180 deg rotation - cart. axis [0,1,1]        

 cryst.   s(13) = (    -1          1          0      )
                  (     0          1          0      )
                  (     0          1         -1      )

 cart.    s(13) = ( -1.0000000  0.0000000  0.0000000 )
                  (  0.0000000  0.0000000  1.0000000 )
                  (  0.0000000  1.0000000  0.0000000 )


      isym = 14     180 deg rotation - cart. axis [0,1,-1]       

 cryst.   s(14) = (     0          0         -1      )
                  (     0         -1          0      )
                  (    -1          0          0      )

 cart.    s(14) = ( -1.0000000  0.0000000  0.0000000 )
                  (  0.0000000  0.0000000 -1.0000000 )
                  (  0.0000000 -1.0000000  0.0000000 )


      isym = 15      90 deg rotation - cart. axis [-1,0,0]       

 cryst.   s(15) = (     0          0          1      )
                  (    -1          0          1      )
                  (     0         -1          1      )

 cart.    s(15) = (  1.0000000  0.0000000  0.0000000 )
                  (  0.0000000  0.0000000  1.0000000 )
                  (  0.0000000 -1.0000000  0.0000000 )


      isym = 16      90 deg rotation - cart. axis [1,0,0]        

 cryst.   s(16) = (     1         -1          0      )
                  (     1          0         -1      )
                  (     1          0          0      )

 cart.    s(16) = (  1.0000000  0.0000000  0.0000000 )
                  (  0.0000000  0.0000000 -1.0000000 )
                  (  0.0000000  1.0000000  0.0000000 )


      isym = 17     120 deg rotation - cart. axis [-1,-1,-1]     

 cryst.   s(17) = (    -1          0          1      )
                  (    -1          1          0      )
                  (    -1          0          0      )

 cart.    s(17) = (  0.0000000  1.0000000  0.0000000 )
                  (  0.0000000  0.0000000  1.0000000 )
                  (  1.0000000  0.0000000  0.0000000 )


      isym = 18     120 deg rotation - cart. axis [-1,1,1]       

 cryst.   s(18) = (     0          1          0      )
                  (     0          0          1      )
                  (     1          0          0      )

 cart.    s(18) = (  0.0000000 -1.0000000  0.0000000 )
                  (  0.0000000  0.0000000  1.0000000 )
                  ( -1.0000000  0.0000000  0.0000000 )


      isym = 19     120 deg rotation - cart. axis [1,1,-1]       

 cryst.   s(19) = (     1          0         -1      )
                  (     0          0         -1      )
                  (     0          1         -1      )

 cart.    s(19) = (  0.0000000  1.0000000  0.0000000 )
                  (  0.0000000  0.0000000 -1.0000000 )
                  ( -1.0000000  0.0000000  0.0000000 )


      isym = 20     120 deg rotation - cart. axis [1,-1,1]       

 cryst.   s(20) = (     0         -1          0      )
                  (     1         -1          0      )
                  (     0         -1          1      )

 cart.    s(20) = (  0.0000000 -1.0000000  0.0000000 )
                  (  0.0000000  0.0000000 -1.0000000 )
                  (  1.0000000  0.0000000  0.0000000 )


      isym = 21     120 deg rotation - cart. axis [1,1,1]        

 cryst.   s(21) = (     0          0         -1      )
                  (     0          1         -1      )
                  (     1          0         -1      )

 cart.    s(21) = (  0.0000000  0.0000000  1.0000000 )
                  (  1.0000000  0.0000000  0.0000000 )
                  (  0.0000000  1.0000000  0.0000000 )


      isym = 22     120 deg rotation - cart. axis [-1,1,-1]      

 cryst.   s(22) = (    -1          1          0      )
                  (    -1          0          0      )
                  (    -1          0          1      )

 cart.    s(22) = (  0.0000000  0.0000000  1.0000000 )
                  ( -1.0000000  0.0000000  0.0000000 )
                  (  0.0000000 -1.0000000  0.0000000 )


      isym = 23     120 deg rotation - cart. axis [1,-1,-1]      

 cryst.   s(23) = (     0          0          1      )
                  (     1          0          0      )
                  (     0          1          0      )

 cart.    s(23) = (  0.0000000  0.0000000 -1.0000000 )
                  ( -1.0000000  0.0000000  0.0000000 )
                  (  0.0000000  1.0000000  0.0000000 )


      isym = 24     120 deg rotation - cart. axis [-1,-1,1]      

 cryst.   s(24) = (     1         -1          0      )
                  (     0         -1          1      )
                  (     0         -1          0      )

 cart.    s(24) = (  0.0000000  0.0000000 -1.0000000 )
                  (  1.0000000  0.0000000  0.0000000 )
                  (  0.0000000 -1.0000000  0.0000000 )


      isym = 25     inversion                                    

 cryst.   s(25) = (    -1          0          0      )
                  (     0         -1          0      )
                  (     0          0         -1      )

 cart.    s(25) = ( -1.0000000  0.0000000  0.0000000 )
                  (  0.0000000 -1.0000000  0.0000000 )
                  (  0.0000000  0.0000000 -1.0000000 )


      isym = 26     inv. 180 deg rotation - cart. axis [0,0,1]   

 cryst.   s(26) = (     0         -1          1      )
                  (    -1          0          1      )
                  (     0          0          1      )

 cart.    s(26) = (  1.0000000  0.0000000  0.0000000 )
                  (  0.0000000  1.0000000  0.0000000 )
                  (  0.0000000  0.0000000 -1.0000000 )


      isym = 27     inv. 180 deg rotation - cart. axis [0,1,0]   

 cryst.   s(27) = (     1          0          0      )
                  (     1          0         -1      )
                  (     1         -1          0      )

 cart.    s(27) = (  1.0000000  0.0000000  0.0000000 )
                  (  0.0000000 -1.0000000  0.0000000 )
                  (  0.0000000  0.0000000  1.0000000 )


      isym = 28     inv. 180 deg rotation - cart. axis [1,0,0]   

 cryst.   s(28) = (     0          1         -1      )
                  (     0          1          0      )
                  (    -1          1          0      )

 cart.    s(28) = ( -1.0000000  0.0000000  0.0000000 )
                  (  0.0000000  1.0000000  0.0000000 )
                  (  0.0000000  0.0000000  1.0000000 )


      isym = 29     inv. 180 deg rotation - cart. axis [1,1,0]   

 cryst.   s(29) = (     0          1          0      )
                  (     1          0          0      )
                  (     0          0          1      )

 cart.    s(29) = (  0.0000000 -1.0000000  0.0000000 )
                  ( -1.0000000  0.0000000  0.0000000 )
                  (  0.0000000  0.0000000  1.0000000 )


      isym = 30     inv. 180 deg rotation - cart. axis [1,-1,0]  

 cryst.   s(30) = (     1          0         -1      )
                  (     0          1         -1      )
                  (     0          0         -1      )

 cart.    s(30) = (  0.0000000  1.0000000  0.0000000 )
                  (  1.0000000  0.0000000  0.0000000 )
                  (  0.0000000  0.0000000  1.0000000 )


      isym = 31     inv.  90 deg rotation - cart. axis [0,0,-1]  

 cryst.   s(31) = (     0         -1          0      )
                  (     0         -1          1      )
                  (     1         -1          0      )

 cart.    s(31) = (  0.0000000 -1.0000000  0.0000000 )
                  (  1.0000000  0.0000000  0.0000000 )
                  (  0.0000000  0.0000000 -1.0000000 )


      isym = 32     inv.  90 deg rotation - cart. axis [0,0,1]   

 cryst.   s(32) = (    -1          0          1      )
                  (    -1          0          0      )
                  (    -1          1          0      )

 cart.    s(32) = (  0.0000000  1.0000000  0.0000000 )
                  ( -1.0000000  0.0000000  0.0000000 )
                  (  0.0000000  0.0000000 -1.0000000 )


      isym = 33     inv. 180 deg rotation - cart. axis [1,0,1]   

 cryst.   s(33) = (     1          0          0      )
                  (     0          0          1      )
                  (     0          1          0      )

 cart.    s(33) = (  0.0000000  0.0000000 -1.0000000 )
                  (  0.0000000  1.0000000  0.0000000 )
                  ( -1.0000000  0.0000000  0.0000000 )


      isym = 34     inv. 180 deg rotation - cart. axis [-1,0,1]  

 cryst.   s(34) = (    -1          0          0      )
                  (    -1          1          0      )
                  (    -1          0          1      )

 cart.    s(34) = (  0.0000000  0.0000000  1.0000000 )
                  (  0.0000000  1.0000000  0.0000000 )
                  (  1.0000000  0.0000000  0.0000000 )


      isym = 35     inv.  90 deg rotation - cart. axis [0,1,0]   

 cryst.   s(35) = (     0         -1          1      )
                  (     1         -1          0      )
                  (     0         -1          0      )

 cart.    s(35) = (  0.0000000  0.0000000 -1.0000000 )
                  (  0.0000000 -1.0000000  0.0000000 )
                  (  1.0000000  0.0000000  0.0000000 )


      isym = 36     inv.  90 deg rotation - cart. axis [0,-1,0]  

 cryst.   s(36) = (     0          1         -1      )
                  (     0          0         -1      )
                  (     1          0         -1      )

 cart.    s(36) = (  0.0000000  0.0000000  1.0000000 )
                  (  0.0000000 -1.0000000  0.0000000 )
                  ( -1.0000000  0.0000000  0.0000000 )


      isym = 37     inv. 180 deg rotation - cart. axis [0,1,1]   

 cryst.   s(37) = (     1         -1          0      )
                  (     0         -1          0      )
                  (     0         -1          1      )

 cart.    s(37) = (  1.0000000  0.0000000  0.0000000 )
                  (  0.0000000  0.0000000 -1.0000000 )
                  (  0.0000000 -1.0000000  0.0000000 )


      isym = 38     inv. 180 deg rotation - cart. axis [0,1,-1]  

 cryst.   s(38) = (     0          0          1      )
                  (     0          1          0      )
                  (     1          0          0      )

 cart.    s(38) = (  1.0000000  0.0000000  0.0000000 )
                  (  0.0000000  0.0000000  1.0000000 )
                  (  0.0000000  1.0000000  0.0000000 )


      isym = 39     inv.  90 deg rotation - cart. axis [-1,0,0]  

 cryst.   s(39) = (     0          0         -1      )
                  (     1          0         -1      )
                  (     0          1         -1      )

 cart.    s(39) = ( -1.0000000  0.0000000  0.0000000 )
                  (  0.0000000  0.0000000 -1.0000000 )
                  (  0.0000000  1.0000000  0.0000000 )


      isym = 40     inv.  90 deg rotation - cart. axis [1,0,0]   

 cryst.   s(40) = (    -1          1          0      )
                  (    -1          0          1      )
                  (    -1          0          0      )

 cart.    s(40) = ( -1.0000000  0.0000000  0.0000000 )
                  (  0.0000000  0.0000000  1.0000000 )
                  (  0.0000000 -1.0000000  0.0000000 )


      isym = 41     inv. 120 deg rotation - cart. axis [-1,-1,-1]

 cryst.   s(41) = (     1          0         -1      )
                  (     1         -1          0      )
                  (     1          0          0      )

 cart.    s(41) = (  0.0000000 -1.0000000  0.0000000 )
                  (  0.0000000  0.0000000 -1.0000000 )
                  ( -1.0000000  0.0000000  0.0000000 )


      isym = 42     inv. 120 deg rotation - cart. axis [-1,1,1]  

 cryst.   s(42) = (     0         -1          0      )
                  (     0          0         -1      )
                  (    -1          0          0      )

 cart.    s(42) = (  0.0000000  1.0000000  0.0000000 )
                  (  0.0000000  0.0000000 -1.0000000 )
                  (  1.0000000  0.0000000  0.0000000 )


      isym = 43     inv. 120 deg rotation - cart. axis [1,1,-1]  

 cryst.   s(43) = (    -1          0          1      )
                  (     0          0          1      )
                  (     0         -1          1      )

 cart.    s(43) = (  0.0000000 -1.0000000  0.0000000 )
                  (  0.0000000  0.0000000  1.0000000 )
                  (  1.0000000  0.0000000  0.0000000 )


      isym = 44     inv. 120 deg rotation - cart. axis [1,-1,1]  

 cryst.   s(44) = (     0          1          0      )
                  (    -1          1          0      )
                  (     0          1         -1      )

 cart.    s(44) = (  0.0000000  1.0000000  0.0000000 )
                  (  0.0000000  0.0000000  1.0000000 )
                  ( -1.0000000  0.0000000  0.0000000 )


      isym = 45     inv. 120 deg rotation - cart. axis [1,1,1]   

 cryst.   s(45) = (     0          0          1      )
                  (     0         -1          1      )
                  (    -1          0          1      )

 cart.    s(45) = (  0.0000000  0.0000000 -1.0000000 )
                  ( -1.0000000  0.0000000  0.0000000 )
                  (  0.0000000 -1.0000000  0.0000000 )


      isym = 46     inv. 120 deg rotation - cart. axis [-1,1,-1] 

 cryst.   s(46) = (     1         -1          0      )
                  (     1          0          0      )
                  (     1          0         -1      )

 cart.    s(46) = (  0.0000000  0.0000000 -1.0000000 )
                  (  1.0000000  0.0000000  0.0000000 )
                  (  0.0000000  1.0000000  0.0000000 )


      isym = 47     inv. 120 deg rotation - cart. axis [1,-1,-1] 

 cryst.   s(47) = (     0          0         -1      )
                  (    -1          0          0      )
                  (     0         -1          0      )

 cart.    s(47) = (  0.0000000  0.0000000  1.0000000 )
                  (  1.0000000  0.0000000  0.0000000 )
                  (  0.0000000 -1.0000000  0.0000000 )


      isym = 48     inv. 120 deg rotation - cart. axis [-1,-1,1] 

 cryst.   s(48) = (    -1          1          0      )
                  (     0          1         -1      )
                  (     0          1          0      )

 cart.    s(48) = (  0.0000000  0.0000000  1.0000000 )
                  ( -1.0000000  0.0000000  0.0000000 )
                  (  0.0000000  1.0000000  0.0000000 )


   Cartesian axes

     site n.     atom                  positions (alat units)
         1        Al     tau(   1) = (   0.0000000   0.0000000   0.0000000  )

   Crystallographic axes

     site n.     atom                  positions (cryst. coord.)
         1        Al     tau(   1) = (  0.0000000  0.0000000  0.0000000  )

     number of k points=    72  Marzari-Vanderbilt smearing, width (Ry)=  0.0100
                       cart. coord. in units 2pi/alat
        k(    1) = (   0.0000000   0.0000000   0.0000000), wk =   0.0011574
        k(    2) = (  -0.0589256   0.0589256  -0.0589256), wk =   0.0092593
        k(    3) = (  -0.1178511   0.1178511  -0.1178511), wk =   0.0092593
        k(    4) = (  -0.1767767   0.1767767  -0.1767767), wk =   0.0092593
        k(    5) = (  -0.2357023   0.2357023  -0.2357023), wk =   0.0092593
        k(    6) = (  -0.2946278   0.2946278  -0.2946278), wk =   0.0092593
        k(    7) = (   0.3535534  -0.3535534   0.3535534), wk =   0.0046296
        k(    8) = (   0.0000000   0.1178511   0.0000000), wk =   0.0069444
        k(    9) = (  -0.0589256   0.1767767  -0.0589256), wk =   0.0277778
        k(   10) = (  -0.1178511   0.2357023  -0.1178511), wk =   0.0277778
        k(   11) = (  -0.1767767   0.2946278  -0.1767767), wk =   0.0277778
        k(   12) = (  -0.2357023   0.3535534  -0.2357023), wk =   0.0277778
        k(   13) = (   0.4124790  -0.2946278   0.4124790), wk =   0.0277778
        k(   14) = (   0.3535534  -0.2357023   0.3535534), wk =   0.0277778
        k(   15) = (   0.2946278  -0.1767767   0.2946278), wk =   0.0277778
        k(   16) = (   0.2357023  -0.1178511   0.2357023), wk =   0.0277778
        k(   17) = (   0.1767767  -0.0589256   0.1767767), wk =   0.0277778
        k(   18) = (   0.1178511  -0.0000000   0.1178511), wk =   0.0138889
        k(   19) = (   0.0000000   0.2357023   0.0000000), wk =   0.0069444
        k(   20) = (  -0.0589256   0.2946278  -0.0589256), wk =   0.0277778
        k(   21) = (  -0.1178511   0.3535534  -0.1178511), wk =   0.0277778
        k(   22) = (  -0.1767767   0.4124790  -0.1767767), wk =   0.0277778
        k(   23) = (   0.4714045  -0.2357023   0.4714045), wk =   0.0277778
        k(   24) = (   0.4124790  -0.1767767   0.4124790), wk =   0.0277778
        k(   25) = (   0.3535534  -0.1178511   0.3535534), wk =   0.0277778
        k(   26) = (   0.2946278  -0.0589256   0.2946278), wk =   0.0277778
        k(   27) = (   0.2357023   0.0000000   0.2357023), wk =   0.0138889
        k(   28) = (   0.0000000   0.3535534   0.0000000), wk =   0.0069444
        k(   29) = (  -0.0589256   0.4124790  -0.0589256), wk =   0.0277778
        k(   30) = (  -0.1178511   0.4714045  -0.1178511), wk =   0.0277778
        k(   31) = (   0.5303301  -0.1767767   0.5303301), wk =   0.0277778
        k(   32) = (   0.4714045  -0.1178511   0.4714045), wk =   0.0277778
        k(   33) = (   0.4124790  -0.0589256   0.4124790), wk =   0.0277778
        k(   34) = (   0.3535534   0.0000000   0.3535534), wk =   0.0138889
        k(   35) = (   0.0000000   0.4714045   0.0000000), wk =   0.0069444
        k(   36) = (  -0.0589256   0.5303301  -0.0589256), wk =   0.0277778
        k(   37) = (   0.5892557  -0.1178511   0.5892557), wk =   0.0277778
        k(   38) = (   0.5303301  -0.0589256   0.5303301), wk =   0.0277778
        k(   39) = (   0.4714045  -0.0000000   0.4714045), wk =   0.0138889
        k(   40) = (   0.0000000   0.5892557   0.0000000), wk =   0.0069444
        k(   41) = (   0.6481812  -0.0589256   0.6481812), wk =   0.0277778
        k(   42) = (   0.5892557   0.0000000   0.5892557), wk =   0.0138889
        k(   43) = (   0.0000000  -0.7071068   0.0000000), wk =   0.0034722
        k(   44) = (  -0.1178511   0.2357023  -0.0000000), wk =   0.0277778
        k(   45) = (  -0.1767767   0.2946278  -0.0589256), wk =   0.0555556
        k(   46) = (  -0.2357023   0.3535534  -0.1178511), wk =   0.0555556
        k(   47) = (   0.4124790  -0.2946278   0.5303301), wk =   0.0555556
        k(   48) = (   0.3535534  -0.2357023   0.4714045), wk =   0.0277778
        k(   49) = (  -0.1178511   0.3535534   0.0000000), wk =   0.0277778
        k(   50) = (  -0.1767767   0.4124790  -0.0589256), wk =   0.0555556
        k(   51) = (   0.4714045  -0.2357023   0.5892557), wk =   0.0555556
        k(   52) = (   0.4124790  -0.1767767   0.5303301), wk =   0.0555556
        k(   53) = (   0.3535534  -0.1178511   0.4714045), wk =   0.0555556
        k(   54) = (   0.2946278  -0.0589256   0.4124790), wk =   0.0555556
        k(   55) = (   0.2357023   0.0000000   0.3535534), wk =   0.0277778
        k(   56) = (  -0.1178511   0.4714045   0.0000000), wk =   0.0277778
        k(   57) = (   0.5303301  -0.1767767   0.6481812), wk =   0.0555556
        k(   58) = (   0.4714045  -0.1178511   0.5892557), wk =   0.0555556
        k(   59) = (   0.4124790  -0.0589256   0.5303301), wk =   0.0555556
        k(   60) = (   0.3535534  -0.0000000   0.4714045), wk =   0.0277778
        k(   61) = (   0.5892557  -0.1178511   0.7071068), wk =   0.0277778
        k(   62) = (   0.5303301  -0.0589256   0.6481812), wk =   0.0555556
        k(   63) = (   0.4714045  -0.0000000   0.5892557), wk =   0.0277778
        k(   64) = (  -0.1178511  -0.7071068   0.0000000), wk =   0.0138889
        k(   65) = (   0.4714045  -0.2357023   0.7071068), wk =   0.0277778
        k(   66) = (   0.4124790  -0.1767767   0.6481812), wk =   0.0555556
        k(   67) = (   0.3535534  -0.1178511   0.5892557), wk =   0.0277778
        k(   68) = (   0.4714045  -0.1178511   0.7071068), wk =   0.0277778
        k(   69) = (   0.4124790  -0.0589256   0.6481812), wk =   0.0555556
        k(   70) = (   0.3535534   0.0000000   0.5892557), wk =   0.0277778
        k(   71) = (  -0.2357023  -0.7071068   0.0000000), wk =   0.0138889
        k(   72) = (  -0.3535534  -0.7071068   0.0000000), wk =   0.0069444

                       cryst. coord.
        k(    1) = (   0.0000000   0.0000000   0.0000000), wk =   0.0011574
        k(    2) = (   0.0000000   0.0000000   0.0833333), wk =   0.0092593
        k(    3) = (   0.0000000   0.0000000   0.1666667), wk =   0.0092593
        k(    4) = (   0.0000000   0.0000000   0.2500000), wk =   0.0092593
        k(    5) = (   0.0000000   0.0000000   0.3333333), wk =   0.0092593
        k(    6) = (   0.0000000   0.0000000   0.4166667), wk =   0.0092593
        k(    7) = (   0.0000000   0.0000000  -0.5000000), wk =   0.0046296
        k(    8) = (   0.0000000   0.0833333   0.0833333), wk =   0.0069444
        k(    9) = (   0.0000000   0.0833333   0.1666667), wk =   0.0277778
        k(   10) = (   0.0000000   0.0833333   0.2500000), wk =   0.0277778
        k(   11) = (   0.0000000   0.0833333   0.3333333), wk =   0.0277778
        k(   12) = (   0.0000000   0.0833333   0.4166667), wk =   0.0277778
        k(   13) = (   0.0000000   0.0833333  -0.5000000), wk =   0.0277778
        k(   14) = (   0.0000000   0.0833333  -0.4166667), wk =   0.0277778
        k(   15) = (   0.0000000   0.0833333  -0.3333333), wk =   0.0277778
        k(   16) = (   0.0000000   0.0833333  -0.2500000), wk =   0.0277778
        k(   17) = (   0.0000000   0.0833333  -0.1666667), wk =   0.0277778
        k(   18) = (   0.0000000   0.0833333  -0.0833333), wk =   0.0138889
        k(   19) = (   0.0000000   0.1666667   0.1666667), wk =   0.0069444
        k(   20) = (   0.0000000   0.1666667   0.2500000), wk =   0.0277778
        k(   21) = (   0.0000000   0.1666667   0.3333333), wk =   0.0277778
        k(   22) = (   0.0000000   0.1666667   0.4166667), wk =   0.0277778
        k(   23) = (   0.0000000   0.1666667  -0.5000000), wk =   0.0277778
        k(   24) = (   0.0000000   0.1666667  -0.4166667), wk =   0.0277778
        k(   25) = (   0.0000000   0.1666667  -0.3333333), wk =   0.0277778
        k(   26) = (   0.0000000   0.1666667  -0.2500000), wk =   0.0277778
        k(   27) = (   0.0000000   0.1666667  -0.1666667), wk =   0.0138889
        k(   28) = (   0.0000000   0.2500000   0.2500000), wk =   0.0069444
        k(   29) = (   0.0000000   0.2500000   0.3333333), wk =   0.0277778
        k(   30) = (   0.0000000   0.2500000   0.4166667), wk =   0.0277778
        k(   31) = (   0.0000000   0.2500000  -0.5000000), wk =   0.0277778
        k(   32) = (   0.0000000   0.2500000  -0.4166667), wk =   0.0277778
        k(   33) = (   0.0000000   0.2500000  -0.3333333), wk =   0.0277778
        k(   34) = (   0.0000000   0.2500000  -0.2500000), wk =   0.0138889
        k(   35) = (   0.0000000   0.3333333   0.3333333), wk =   0.0069444
        k(   36) = (   0.0000000   0.3333333   0.4166667), wk =   0.0277778
        k(   37) = (   0.0000000   0.3333333  -0.5000000), wk =   0.0277778
        k(   38) = (   0.0000000   0.3333333  -0.4166667), wk =   0.0277778
        k(   39) = (   0.0000000   0.3333333  -0.3333333), wk =   0.0138889
        k(   40) = (   0.0000000   0.4166667   0.4166667), wk =   0.0069444
        k(   41) = (   0.0000000   0.4166667  -0.5000000), wk =   0.0277778
        k(   42) = (   0.0000000   0.4166667  -0.4166667), wk =   0.0138889
        k(   43) = (   0.0000000  -0.5000000  -0.5000000), wk =   0.0034722
        k(   44) = (   0.0833333   0.1666667   0.2500000), wk =   0.0277778
        k(   45) = (   0.0833333   0.1666667   0.3333333), wk =   0.0555556
        k(   46) = (   0.0833333   0.1666667   0.4166667), wk =   0.0555556
        k(   47) = (   0.0833333   0.1666667  -0.5000000), wk =   0.0555556
        k(   48) = (   0.0833333   0.1666667  -0.4166667), wk =   0.0277778
        k(   49) = (   0.0833333   0.2500000   0.3333333), wk =   0.0277778
        k(   50) = (   0.0833333   0.2500000   0.4166667), wk =   0.0555556
        k(   51) = (   0.0833333   0.2500000  -0.5000000), wk =   0.0555556
        k(   52) = (   0.0833333   0.2500000  -0.4166667), wk =   0.0555556
        k(   53) = (   0.0833333   0.2500000  -0.3333333), wk =   0.0555556
        k(   54) = (   0.0833333   0.2500000  -0.2500000), wk =   0.0555556
        k(   55) = (   0.0833333   0.2500000  -0.1666667), wk =   0.0277778
        k(   56) = (   0.0833333   0.3333333   0.4166667), wk =   0.0277778
        k(   57) = (   0.0833333   0.3333333  -0.5000000), wk =   0.0555556
        k(   58) = (   0.0833333   0.3333333  -0.4166667), wk =   0.0555556
        k(   59) = (   0.0833333   0.3333333  -0.3333333), wk =   0.0555556
        k(   60) = (   0.0833333   0.3333333  -0.2500000), wk =   0.0277778
        k(   61) = (   0.0833333   0.4166667  -0.5000000), wk =   0.0277778
        k(   62) = (   0.0833333   0.4166667  -0.4166667), wk =   0.0555556
        k(   63) = (   0.0833333   0.4166667  -0.3333333), wk =   0.0277778
        k(   64) = (   0.0833333  -0.5000000  -0.4166667), wk =   0.0138889
        k(   65) = (   0.1666667   0.3333333  -0.5000000), wk =   0.0277778
        k(   66) = (   0.1666667   0.3333333  -0.4166667), wk =   0.0555556
        k(   67) = (   0.1666667   0.3333333  -0.3333333), wk =   0.0277778
        k(   68) = (   0.1666667   0.4166667  -0.4166667), wk =   0.0277778
        k(   69) = (   0.1666667   0.4166667  -0.3333333), wk =   0.0555556
        k(   70) = (   0.1666667   0.4166667  -0.2500000), wk =   0.0277778
        k(   71) = (   0.1666667  -0.5000000  -0.3333333), wk =   0.0138889
        k(   72) = (   0.2500000  -0.5000000  -0.2500000), wk =   0.0069444

     Dense  grid:     7119 G-vectors     FFT dimensions: (  27,  27,  27)

     Smooth grid:     2445 G-vectors     FFT dimensions: (  20,  20,  20)

     Dynamical RAM for                 wfc:       0.03 MB

     Dynamical RAM for     wfc (w. buffer):       2.08 MB

     Dynamical RAM for           str. fact:       0.11 MB

     Dynamical RAM for           local pot:       0.00 MB

     Dynamical RAM for          nlocal pot:       0.09 MB

     Dynamical RAM for                qrad:       1.24 MB

     Dynamical RAM for          rho,v,vnew:       0.78 MB

     Dynamical RAM for               rhoin:       0.26 MB

     Dynamical RAM for            rho*nmix:       1.74 MB

     Dynamical RAM for           G-vectors:       0.43 MB

     Dynamical RAM for          h,s,v(r/c):       0.01 MB

     Dynamical RAM for          <psi|beta>:       0.00 MB

     Dynamical RAM for                 psi:       0.06 MB

     Dynamical RAM for                hpsi:       0.06 MB

     Dynamical RAM for                spsi:       0.06 MB

     Dynamical RAM for      wfcinit/wfcrot:       0.06 MB

     Dynamical RAM for           addusdens:      20.31 MB

     Estimated static dynamical RAM per process >       5.95 MB

     Estimated max dynamical RAM per process >      28.00 MB

     Initial potential from superposition of free atoms

     starting charge       2.9977, renormalised to       3.0000
     Starting wfcs are    4 randomized atomic wfcs +    2 random wfcs

     total cpu time spent up to now is        0.4 secs

     per-process dynamical memory:    14.3 Mb

     Self-consistent Calculation

     iteration #  1     ecut=    30.00 Ry     beta= 0.70
     Davidson diagonalization with overlap

---- Real-time Memory Report at c_bands before calling an iterative solver
            53 MiB given to the printing process from OS
            13 MiB allocation reported by mallinfo(arena+hblkhd)
          6339 MiB available memory on the node where the printing process lives
------------------
     ethr =  1.00E-02,  avg # of iterations =  5.8

     Threshold (ethr) on eigenvalues was too large:
     Diagonalizing with lowered threshold

     Davidson diagonalization with overlap

---- Real-time Memory Report at c_bands before calling an iterative solver
            57 MiB given to the printing process from OS
            34 MiB allocation reported by mallinfo(arena+hblkhd)
          6339 MiB available memory on the node where the printing process lives
------------------
     ethr =  1.84E-04,  avg # of iterations =  3.5

     total cpu time spent up to now is        0.7 secs

     total energy              =      -5.04019002 Ry
     estimated scf accuracy    <       0.00543476 Ry

     iteration #  2     ecut=    30.00 Ry     beta= 0.70
     Davidson diagonalization with overlap

---- Real-time Memory Report at c_bands before calling an iterative solver
            57 MiB given to the printing process from OS
            34 MiB allocation reported by mallinfo(arena+hblkhd)
          6339 MiB available memory on the node where the printing process lives
------------------
     ethr =  1.81E-04,  avg # of iterations =  1.0

     total cpu time spent up to now is        0.8 secs

     total energy              =      -5.04016012 Ry
     estimated scf accuracy    <       0.00039121 Ry

     iteration #  3     ecut=    30.00 Ry     beta= 0.70
     Davidson diagonalization with overlap

---- Real-time Memory Report at c_bands before calling an iterative solver
            57 MiB given to the printing process from OS
            34 MiB allocation reported by mallinfo(arena+hblkhd)
          6339 MiB available memory on the node where the printing process lives
------------------
     ethr =  1.30E-05,  avg # of iterations =  2.6

     total cpu time spent up to now is        0.9 secs

     total energy              =      -5.04016993 Ry
     estimated scf accuracy    <       0.00000052 Ry

     iteration #  4     ecut=    30.00 Ry     beta= 0.70
     Davidson diagonalization with overlap

---- Real-time Memory Report at c_bands before calling an iterative solver
            57 MiB given to the printing process from OS
            34 MiB allocation reported by mallinfo(arena+hblkhd)
          6342 MiB available memory on the node where the printing process lives
------------------
     ethr =  1.74E-08,  avg # of iterations =  3.6

     total cpu time spent up to now is        1.1 secs

     total energy              =      -5.04017067 Ry
     estimated scf accuracy    <          3.6E-09 Ry

     iteration #  5     ecut=    30.00 Ry     beta= 0.70
     Davidson diagonalization with overlap

---- Real-time Memory Report at c_bands before calling an iterative solver
            57 MiB given to the printing process from OS
            34 MiB allocation reported by mallinfo(arena+hblkhd)
          6342 MiB available memory on the node where the printing process lives
------------------
     ethr =  1.19E-10,  avg # of iterations =  2.2

     total cpu time spent up to now is        1.2 secs

     End of self-consistent calculation

          k = 0.0000 0.0000 0.0000 (   331 PWs)   bands (ev):

    -3.2539  20.4198  20.4199  21.8620  21.8620  21.8620

     occupation numbers 
     1.0000   0.0000   0.0000   0.0000   0.0000   0.0000

          k =-0.0589 0.0589-0.0589 (   319 PWs)   bands (ev):

    -3.0659  17.8100  19.8437  19.8437  22.5552  22.7230

     occupation numbers 
     1.0000   0.0000   0.0000   0.0000   0.0000   0.0000

          k =-0.1179 0.1179-0.1179 (   311 PWs)   bands (ev):

    -2.5033  14.4602  19.1424  19.1424  22.3822  23.7746

     occupation numbers 
     1.0000   0.0000   0.0000   0.0000   0.0000   0.0000

          k =-0.1768 0.1768-0.1768 (   311 PWs)   bands (ev):

    -1.5708  11.2680  18.7010  18.7010  22.1545  22.5293

     occupation numbers 
     1.0000   0.0000   0.0000   0.0000   0.0000   0.0000

          k =-0.2357 0.2357-0.2357 (   308 PWs)   bands (ev):

    -0.2752   8.3337  18.5621  18.5621  21.1445  21.1447

     occupation numbers 
     1.0000   0.0000   0.0000   0.0000   0.0000   0.0000

          k =-0.2946 0.2946-0.2946 (   317 PWs)   bands (ev):

     1.3736   5.6953  18.7351  18.7351  20.0322  20.0322

     occupation numbers 
     1.0000   1.0000   0.0000   0.0000   0.0000   0.0000

          k = 0.3536-0.3536 0.3536 (   302 PWs)   bands (ev):

     3.2686   3.4696  19.1826  19.1826  19.2693  19.2693

     occupation numbers 
     1.0000   1.0000   0.0000   0.0000   0.0000   0.0000

          k = 0.0000 0.1179 0.0000 (   315 PWs)   bands (ev):

    -3.0032  18.6971  18.6971  19.0134  21.2924  23.9458

     occupation numbers 
     1.0000   0.0000   0.0000   0.0000   0.0000   0.0000

          k =-0.0589 0.1768-0.0589 (   315 PWs)   bands (ev):

    -2.5657  15.6621  17.8210  19.1077  21.6468  22.6098

     occupation numbers 
     1.0000   0.0000   0.0000   0.0000   0.0000   0.0000

          k =-0.1179 0.2357-0.1179 (   313 PWs)   bands (ev):

    -1.7568  12.4387  17.2518  18.7687  20.5587  23.4565

     occupation numbers 
     1.0000   0.0000   0.0000   0.0000   0.0000   0.0000

          k =-0.1768 0.2946-0.1768 (   308 PWs)   bands (ev):

    -0.5827   9.4274  16.9973  18.5683  19.0128  23.4108

     occupation numbers 
     1.0000   0.0000   0.0000   0.0000   0.0000   0.0000

          k =-0.2357 0.3536-0.2357 (   315 PWs)   bands (ev):

     0.9478   6.6945  17.0602  17.7422  18.6775  22.2294

     occupation numbers 
     1.0000   1.0000   0.0000   0.0000   0.0000   0.0000

          k = 0.4125-0.2946 0.4125 (   313 PWs)   bands (ev):

     2.8197   4.2734  16.8054  17.4420  19.0934  21.3329

     occupation numbers 
     1.0000   1.0000   0.0000   0.0000   0.0000   0.0000

          k = 0.3536-0.2357 0.3536 (   311 PWs)   bands (ev):

     2.1600   5.0426  16.1945  18.1423  19.8356  20.7438

     occupation numbers 
     1.0000   1.0000   0.0000   0.0000   0.0000   0.0000

          k = 0.2946-0.1768 0.2946 (   313 PWs)   bands (ev):

     0.3987   7.5703  15.9145  19.1533  20.4723  20.8931

     occupation numbers 
     1.0000   0.9949   0.0000   0.0000   0.0000   0.0000

          k = 0.2357-0.1179 0.2357 (   308 PWs)   bands (ev):

    -1.0141  10.3955  15.9687  20.3123  20.6611  22.2377

     occupation numbers 
     1.0000   0.0000   0.0000   0.0000   0.0000   0.0000

          k = 0.1768-0.0589 0.1768 (   312 PWs)   bands (ev):

    -2.0674  13.4659  16.3697  20.7370  22.0403  23.2919

     occupation numbers 
     1.0000   0.0000   0.0000   0.0000   0.0000   0.0000

          k = 0.1179-0.0000 0.1179 (   315 PWs)   bands (ev):

    -2.7531  16.4319  17.3651  20.9085  22.1337  23.1690

     occupation numbers 
     1.0000   0.0000   0.0000   0.0000   0.0000   0.0000

          k = 0.0000 0.2357 0.0000 (   307 PWs)   bands (ev):

    -2.2540  16.8141  16.8141  16.9962  20.0401  20.2904

     occupation numbers 
     1.0000   0.0000   0.0000   0.0000   0.0000   0.0000

          k =-0.0589 0.2946-0.0589 (   306 PWs)   bands (ev):

    -1.5707  13.8616  16.1267  17.4430  18.2502  20.4689

     occupation numbers 
     1.0000   0.0000   0.0000   0.0000   0.0000   0.0000

          k =-0.1179 0.3536-0.1179 (   313 PWs)   bands (ev):

    -0.5213  10.8314  15.7595  16.4949  17.4060  22.2804

     occupation numbers 
     1.0000   0.0000   0.0000   0.0000   0.0000   0.0000

          k =-0.1768 0.4125-0.1768 (   316 PWs)   bands (ev):

     0.8861   8.0279  15.1041  15.7124  17.4345  24.5255

     occupation numbers 
     1.0000   0.0000   0.0000   0.0000   0.0000   0.0000

          k = 0.4714-0.2357 0.4714 (   307 PWs)   bands (ev):

     2.6393   5.5139  14.0352  15.9857  17.7682  23.7495

     occupation numbers 
     1.0000   1.0000   0.0000   0.0000   0.0000   0.0000

          k = 0.4125-0.1768 0.4125 (   307 PWs)   bands (ev):

     3.2975   4.7434  13.3049  16.5798  18.4329  23.0678

     occupation numbers 
     1.0000   1.0000   0.0000   0.0000   0.0000   0.0000

          k = 0.3536-0.1179 0.3536 (   308 PWs)   bands (ev):

     1.4338   7.1394  12.9263  17.4939  19.4254  22.6876

     occupation numbers 
     1.0000   1.0000   0.0000   0.0000   0.0000   0.0000

          k = 0.2946-0.0589 0.2946 (   309 PWs)   bands (ev):

    -0.0912   9.8004  12.9373  18.7222  20.7234  22.5887

     occupation numbers 
     1.0000   0.0000   0.0000   0.0000   0.0000   0.0000

          k = 0.2357 0.0000 0.2357 (   311 PWs)   bands (ev):

    -1.2612  12.3142  13.7117  20.2404  22.2689  22.3674

     occupation numbers 
     1.0000   0.0000   0.0000   0.0000   0.0000   0.0000

          k = 0.0000 0.3536 0.0000 (   311 PWs)   bands (ev):

    -1.0142  15.3142  15.3260  15.3260  16.0719  18.7834

     occupation numbers 
     1.0000   0.0000   0.0000   0.0000   0.0000   0.0000

          k =-0.0589 0.4125-0.0589 (   310 PWs)   bands (ev):

    -0.0919  12.4851  14.2114  14.8480  16.1047  19.2972

     occupation numbers 
     1.0000   0.0000   0.0000   0.0000   0.0000   0.0000

          k =-0.1179 0.4714-0.1179 (   316 PWs)   bands (ev):

     1.1886   9.6685  12.6796  14.6915  16.2651  21.3160

     occupation numbers 
     1.0000   0.0000   0.0000   0.0000   0.0000   0.0000

          k = 0.5303-0.1768 0.5303 (   311 PWs)   bands (ev):

     2.8148   7.0874  11.4824  14.8560  16.5403  23.8655

     occupation numbers 
     1.0000   1.0000   0.0000   0.0000   0.0000   0.0000

          k = 0.4714-0.1179 0.4714 (   307 PWs)   bands (ev):

     4.6570   4.9115  10.6393  15.3417  17.1178  25.6894

     occupation numbers 
     1.0000   1.0000   0.0000   0.0000   0.0000   0.0000

          k = 0.4125-0.0589 0.4125 (   305 PWs)   bands (ev):

     2.8210   7.0080  10.1977  16.1493  18.0239  25.2179

     occupation numbers 
     1.0000   1.0000   0.0000   0.0000   0.0000   0.0000

          k = 0.3536 0.0000 0.3536 (   315 PWs)   bands (ev):

     1.1907   9.0785  10.5761  17.2779  19.2440  24.7694

     occupation numbers 
     1.0000   0.0000   0.0000   0.0000   0.0000   0.0000

          k = 0.0000 0.4714 0.0000 (   315 PWs)   bands (ev):

     0.7016  12.2044  14.0884  14.2607  14.2607  17.7397

     occupation numbers 
     1.0000   0.0000   0.0000   0.0000   0.0000   0.0000

          k =-0.0589 0.5303-0.0589 (   316 PWs)   bands (ev):

     1.8510  10.5192  11.5918  13.9954  15.1668  18.4587

     occupation numbers 
     1.0000   0.0000   0.0000   0.0000   0.0000   0.0000

          k = 0.5893-0.1179 0.5893 (   311 PWs)   bands (ev):

     3.3402   8.8725   9.3341  14.0512  15.5579  20.7064

     occupation numbers 
     1.0000   0.0000   0.0000   0.0000   0.0000   0.0000

          k = 0.5303-0.0589 0.5303 (   306 PWs)   bands (ev):

     5.1166   6.6038   8.3330  14.4283  16.0744  23.4981

     occupation numbers 
     1.0000   1.0000   0.0000   0.0000   0.0000   0.0000

          k = 0.4714-0.0000 0.4714 (   309 PWs)   bands (ev):

     4.5462   6.7700   8.2251  15.1273  16.8918  26.4350

     occupation numbers 
     1.0000   1.0000   0.0000   0.0000   0.0000   0.0000

          k = 0.0000 0.5893 0.0000 (   322 PWs)   bands (ev):

     2.8618   8.7433  13.3471  13.6218  13.6218  17.0726

     occupation numbers 
     1.0000   0.0000   0.0000   0.0000   0.0000   0.0000

          k = 0.6482-0.0589 0.6482 (   310 PWs)   bands (ev):

     4.1801   7.3342  11.1186  13.5695  14.6938  18.0241

     occupation numbers 
     1.0000   1.0063   0.0000   0.0000   0.0000   0.0000

          k = 0.5893 0.0000 0.5893 (   314 PWs)   bands (ev):

     5.3888   6.7150   8.7767  13.8380  15.3188  20.4987

     occupation numbers 
     1.0000   1.0000   0.0000   0.0000   0.0000   0.0000

          k = 0.0000-0.7071 0.0000 (   302 PWs)   bands (ev):

     4.9293   6.2411  13.0993  13.4091  13.4091  16.8441

     occupation numbers 
     1.0000   1.0000   0.0000   0.0000   0.0000   0.0000

          k =-0.1179 0.2357-0.0000 (   312 PWs)   bands (ev):

    -2.0052  14.3877  15.5454  19.8028  20.3737  21.6338

     occupation numbers 
     1.0000   0.0000   0.0000   0.0000   0.0000   0.0000

          k =-0.1768 0.2946-0.0589 (   309 PWs)   bands (ev):

    -1.0759  11.6407  14.6670  18.6263  19.9841  22.9191

     occupation numbers 
     1.0000   0.0000   0.0000   0.0000   0.0000   0.0000

          k =-0.2357 0.3536-0.1179 (   312 PWs)   bands (ev):

     0.2150   8.7730  14.4570  17.1459  19.9580  22.6674

     occupation numbers 
     1.0000   0.0000   0.0000   0.0000   0.0000   0.0000

          k = 0.4125-0.2946 0.5303 (   311 PWs)   bands (ev):

     1.8575   6.1591  14.6079  15.9871  20.1679  21.5636

     occupation numbers 
     1.0000   1.0000   0.0000   0.0000   0.0000   0.0000

          k = 0.3536-0.2357 0.4714 (   310 PWs)   bands (ev):

     3.7327   3.9577  14.9712  15.2878  20.5452  20.8772

     occupation numbers 
     1.0000   1.0000   0.0000   0.0000   0.0000   0.0000

          k =-0.1179 0.3536 0.0000 (   309 PWs)   bands (ev):

    -0.7676  12.7793  14.0249  16.3199  18.3034  20.3785

     occupation numbers 
     1.0000   0.0000   0.0000   0.0000   0.0000   0.0000

          k =-0.1768 0.4125-0.0589 (   313 PWs)   bands (ev):

     0.3979  10.2545  13.3150  14.7096  18.7531  21.9087

     occupation numbers 
     1.0000   0.0000   0.0000   0.0000   0.0000   0.0000

          k = 0.4714-0.2357 0.5893 (   311 PWs)   bands (ev):

     1.9161   7.6031  13.1506  13.5792  18.9737  23.8616

     occupation numbers 
     1.0000   0.8755   0.0000   0.0000   0.0000   0.0000

          k = 0.4125-0.1768 0.5303 (   309 PWs)   bands (ev):

     3.7679   5.2177  12.3749  13.7741  19.4244  23.2168

     occupation numbers 
     1.0000   1.0000   0.0000   0.0000   0.0000   0.0000

          k = 0.3536-0.1179 0.4714 (   309 PWs)   bands (ev):

     3.1192   5.9639  11.7812  14.4875  20.1719  22.6098

     occupation numbers 
     1.0000   1.0000   0.0000   0.0000   0.0000   0.0000

          k = 0.2946-0.0589 0.4125 (   313 PWs)   bands (ev):

     1.3726   8.4065  11.5738  15.5473  21.2019  22.2530

     occupation numbers 
     1.0000   0.0000   0.0000   0.0000   0.0000   0.0000

          k = 0.2357 0.0000 0.3536 (   314 PWs)   bands (ev):

    -0.0300  10.6972  12.1584  16.9343  21.6706  22.3904

     occupation numbers 
     1.0000   0.0000   0.0000   0.0000   0.0000   0.0000

          k =-0.1179 0.4714 0.0000 (   317 PWs)   bands (ev):

     0.9453  11.6247  12.3441  13.0499  17.1816  19.3937

     occupation numbers 
     1.0000   0.0000   0.0000   0.0000   0.0000   0.0000

          k = 0.5303-0.1768 0.6482 (   314 PWs)   bands (ev):

     2.3338   9.3163  10.9945  12.4954  17.8720  21.1386

     occupation numbers 
     1.0000   0.0000   0.0000   0.0000   0.0000   0.0000

          k = 0.4714-0.1179 0.5893 (   311 PWs)   bands (ev):

     4.0538   6.8951   9.9337  12.7051  18.3269  23.7212

     occupation numbers 
     1.0000   1.0000   0.0000   0.0000   0.0000   0.0000

          k = 0.4125-0.0589 0.5303 (   307 PWs)   bands (ev):

     4.7167   6.0771   9.2579  13.3087  19.0075  25.2281

     occupation numbers 
     1.0000   1.0000   0.0000   0.0000   0.0000   0.0000

          k = 0.3536-0.0000 0.4714 (   307 PWs)   bands (ev):

     2.8799   7.9235   9.4037  14.2617  19.9788  24.4336

     occupation numbers 
     1.0000   0.0016   0.0000   0.0000   0.0000   0.0000

          k = 0.5893-0.1179 0.7071 (   316 PWs)   bands (ev):

     3.1012   8.9699  10.9302  12.3021  16.5009  18.7669

     occupation numbers 
     1.0000   0.0000   0.0000   0.0000   0.0000   0.0000

          k = 0.5303-0.0589 0.6482 (   312 PWs)   bands (ev):

     4.6510   7.7846   8.9015  12.0204  17.4223  20.7349

     occupation numbers 
     1.0000   0.0862   0.0000   0.0000   0.0000   0.0000

          k = 0.4714-0.0000 0.5893 (   312 PWs)   bands (ev):

     6.0790   6.5970   7.5458  12.4732  18.1063  23.5541

     occupation numbers 
     1.0000   1.0000   1.0499   0.0000   0.0000   0.0000

          k =-0.1179-0.7071 0.0000 (   312 PWs)   bands (ev):

     5.1590   6.4830  10.6985  12.0729  16.2732  18.5526

     occupation numbers 
     1.0000   1.0000   0.0000   0.0000   0.0000   0.0000

          k = 0.4714-0.2357 0.7071 (   311 PWs)   bands (ev):

     1.6740   9.5414  10.9915  13.1892  20.6221  22.2294

     occupation numbers 
     1.0000   0.0000   0.0000   0.0000   0.0000   0.0000

          k = 0.4125-0.1768 0.6482 (   309 PWs)   bands (ev):

     3.2943   7.4721  10.6104  12.0170  21.4107  22.8482

     occupation numbers 
     1.0000   1.0743   0.0000   0.0000   0.0000   0.0000

          k = 0.3536-0.1179 0.5893 (   312 PWs)   bands (ev):

     5.1175   5.3757  10.8380  11.3916  21.8098  22.2956

     occupation numbers 
     1.0000   1.0000   0.0000   0.0000   0.0000   0.0000

          k = 0.4714-0.1179 0.7071 (   309 PWs)   bands (ev):

     3.8170   8.8480   9.5566  10.5026  19.9595  21.7273

     occupation numbers 
     1.0000   0.0000   0.0000   0.0000   0.0000   0.0000

          k = 0.4125-0.0589 0.6482 (   307 PWs)   bands (ev):

     5.5856   6.9960   8.7430  10.2831  21.0046  23.8353

     occupation numbers 
     1.0000   1.0000   0.0000   0.0000   0.0000   0.0000

          k = 0.3536 0.0000 0.5893 (   311 PWs)   bands (ev):

     5.0003   7.2313   8.6648  10.9348  21.8166  23.8279

     occupation numbers 
     1.0000   1.0002   0.0000   0.0000   0.0000   0.0000

          k =-0.2357-0.7071 0.0000 (   308 PWs)   bands (ev):

     5.8489   7.1900   8.6168  10.1725  19.7359  21.5423

     occupation numbers 
     1.0000   1.0000   0.0000   0.0000   0.0000   0.0000

          k =-0.3536-0.7071 0.0000 (   308 PWs)   bands (ev):

     7.0007   7.0007   8.0199   8.9159  23.6155  23.6155

     occupation numbers 
     1.0000   1.0000   0.0000   0.0000   0.0000   0.0000

     the Fermi energy is     7.6938 ev

!    total energy              =      -5.04017067 Ry
     estimated scf accuracy    <          4.4E-11 Ry
     smearing contrib. (-TS)   =       0.00009458 Ry
     internal energy E=F+TS    =      -5.04026526 Ry

     The total energy is F=E-TS. E is the sum of the following terms:
     one-electron contribution =       2.93317592 Ry
     hartree contribution      =       0.00593834 Ry
     xc contribution           =      -2.58753858 Ry
     ewald contribution        =      -5.39184093 Ry

     convergence has been achieved in   5 iterations

     Writing all to output data dir ./tmp/al-k12-d001.save/ :
     XML data file, charge density, pseudopotentials, collected wavefunctions

     init_run     :      0.37s CPU      0.39s WALL (       1 calls)
     electrons    :      0.68s CPU      0.75s WALL (       1 calls)

     Called by init_run:
     wfcinit      :      0.10s CPU      0.11s WALL (       1 calls)
     wfcinit:atom :      0.00s CPU      0.00s WALL (      72 calls)
     wfcinit:wfcr :      0.10s CPU      0.10s WALL (      72 calls)
     potinit      :      0.09s CPU      0.10s WALL (       1 calls)
     hinit0       :      0.16s CPU      0.16s WALL (       1 calls)

     Called by electrons:
     c_bands      :      0.48s CPU      0.51s WALL (       6 calls)
     sum_band     :      0.13s CPU      0.14s WALL (       6 calls)
     v_of_rho     :      0.02s CPU      0.02s WALL (       6 calls)
     v_h          :      0.00s CPU      0.00s WALL (       6 calls)
     v_xc         :      0.02s CPU      0.02s WALL (       6 calls)
     newd         :      0.06s CPU      0.07s WALL (       6 calls)
     mix_rho      :      0.00s CPU      0.00s WALL (       6 calls)

     Called by c_bands:
     init_us_2    :      0.03s CPU      0.03s WALL (     936 calls)
     cegterg      :      0.43s CPU      0.46s WALL (     432 calls)

     Called by sum_band:
     sum_band:wei :      0.00s CPU      0.00s WALL (       6 calls)
     sum_band:loo :      0.06s CPU      0.07s WALL (       6 calls)
     sum_band:buf :      0.00s CPU      0.00s WALL (     432 calls)
     sum_band:ini :      0.01s CPU      0.02s WALL (     432 calls)
     sum_band:cal :      0.01s CPU      0.01s WALL (     432 calls)
     sum_band:bec :      0.00s CPU      0.00s WALL (     432 calls)
     addusdens    :      0.06s CPU      0.07s WALL (       6 calls)
                                        0.00s GPU  (       6 calls)
     addusd:skk   :      0.00s CPU      0.00s WALL (       6 calls)
                                        0.00s GPU  (       6 calls)

     Called by *egterg:
     cdiaghg      :      0.03s CPU      0.03s WALL (    1706 calls)
     cegterg:over :      0.03s CPU      0.03s WALL (    1346 calls)
     cegterg:upda :      0.02s CPU      0.02s WALL (    1346 calls)
     cegterg:last :      0.03s CPU      0.04s WALL (     922 calls)
     h_psi        :      0.36s CPU      0.38s WALL (    1850 calls)
     s_psi        :      0.04s CPU      0.04s WALL (    1850 calls)
     g_psi        :      0.00s CPU      0.00s WALL (    1346 calls)

     Called by h_psi:
     h_psi:calbec :      0.04s CPU      0.04s WALL (    1850 calls)
     vloc_psi     :      0.28s CPU      0.29s WALL (    1850 calls)
                                        0.00s GPU  (    1850 calls)
     add_vuspsi   :      0.04s CPU      0.04s WALL (    1850 calls)

     General routines
     calbec       :      0.05s CPU      0.05s WALL (    2282 calls)
     fft          :      0.05s CPU      0.05s WALL (      77 calls)
     ffts         :      0.08s CPU      0.08s WALL (      12 calls)
     fftw         :      0.25s CPU      0.26s WALL (   17528 calls)
     interpolate  :      0.08s CPU      0.08s WALL (       6 calls)

     Parallel routines

     PWSCF        :      1.10s CPU      1.19s WALL


   This run was terminated on:   4:29:20   5Aug2026            

=------------------------------------------------------------------------------=
   JOB DONE.
=------------------------------------------------------------------------------=
