
     Program PWSCF v.7.5 starts on  5Aug2026 at  2:55:53 

     This program is part of the open-source Quantum ESPRESSO suite
     for quantum simulation of materials; please cite
         "P. Giannozzi et al., J. Phys.:Condens. Matter 21 395502 (2009);
         "P. Giannozzi et al., J. Phys.:Condens. Matter 29 465901 (2017);
         "P. Giannozzi et al., J. Chem. Phys. 152 154105 (2020);
          URL http://www.quantum-espresso.org", 
     in publications or presentations arising from this work. More details at
     http://www.quantum-espresso.org/quote

     Parallel version (MPI), running on     1 processors

     MPI processes distributed on     1 nodes
     7972 MiB available memory on the printing compute node when the environment starts

     Reading input from mgo-scf.in

     Current dimensions of program PWSCF are:
     Max number of different atomic species (ntypx) = 10
     Max number of k-points (npk) =  40000
     Max angular momentum in pseudopotentials (lmaxx) =  4
     file Mg.pbe-spnl-kjpaw_psl.1.0.0.UPF: wavefunction(s)  2P renormalized
     file O.pbe-n-kjpaw_psl.0.1.UPF: wavefunction(s)  2P renormalized
     Message from routine setup:
     using ibrav=0 with symmetry is DISCOURAGED, use correct ibrav instead

     Subspace diagonalization in iterative solution of the eigenvalue problem:
     a serial algorithm will be used


     G-vector sticks info
     --------------------
     sticks:   dense  smooth     PW     G-vecs:    dense   smooth      PW
     Sum        1285     649    199                30923    11017    1917

     Using Slab Decomposition



     bravais-lattice index     =            0
     lattice parameter (alat)  =       5.6282  a.u.
     unit-cell volume          =     126.0671 (a.u.)^3
     number of atoms/cell      =            2
     number of atomic types    =            2
     number of electrons       =        16.00
     number of Kohn-Sham states=            8
     kinetic-energy cutoff     =      75.0000  Ry
     charge density cutoff     =     600.0000  Ry
     scf convergence threshold =      1.0E-10
     mixing beta               =       0.7000
     number of iterations used =            8  plain     mixing
     Exchange-correlation= SLA  PW   PBX  PBC
                           (   1   4   3   4   0   0   0)

     celldm(1)=   5.628235  celldm(2)=   0.000000  celldm(3)=   0.000000
     celldm(4)=   0.000000  celldm(5)=   0.000000  celldm(6)=   0.000000

     crystal axes: (cart. coord. in units of alat)
               a(1) = (   0.000000   0.707107   0.707107 )  
               a(2) = (   0.707107   0.000000   0.707107 )  
               a(3) = (   0.707107   0.707107   0.000000 )  

     reciprocal axes: (cart. coord. in units 2 pi/alat)
               b(1) = ( -0.707107  0.707107  0.707107 )  
               b(2) = (  0.707107 -0.707107  0.707107 )  
               b(3) = (  0.707107  0.707107 -0.707107 )  


     PseudoPot. # 1 for Mg read from file:
     ./pseudo/Mg.pbe-spnl-kjpaw_psl.1.0.0.UPF
     MD5 check sum: fda14e0d92a6a9a5ebed782e5a4b3067
     Pseudo is Projector augmented-wave + core cor, Zval = 10.0
     Generated using &quot;atomic&quot; code by A. Dal Corso  v.6.3
     Shape of augmentation charge: PSQ
     Using radial grid of 1129 points,  4 beta functions with: 
                l(1) =   0
                l(2) =   0
                l(3) =   1
                l(4) =   1
     Q(r) pseudized with 0 coefficients 


     PseudoPot. # 2 for O  read from file:
     ./pseudo/O.pbe-n-kjpaw_psl.0.1.UPF
     MD5 check sum: 0234752ac141de4415c5fc33072bef88
     Pseudo is Projector augmented-wave + core cor, Zval =  6.0
     Generated using "atomic" code by A. Dal Corso  v.5.0.99 svn rev. 10869
     Shape of augmentation charge: BESSEL
     Using radial grid of 1095 points,  4 beta functions with: 
                l(1) =   0
                l(2) =   0
                l(3) =   1
                l(4) =   1
     Q(r) pseudized with 0 coefficients 


     atomic species   valence    mass     pseudopotential
     Mg               10.00    24.30500     Mg( 1.00)
     O                 6.00    15.99940     O ( 1.00)

     48 Sym. Ops., with inversion, found



   Cartesian axes

     site n.     atom                  positions (alat units)
         1        Mg     tau(   1) = (   0.0000000   0.0000000   0.0000000  )
         2        O      tau(   2) = (   0.7071068   0.7071068   0.7071068  )

     number of k points=    16
                       cart. coord. in units 2pi/alat
        k(    1) = (   0.0000000   0.0000000   0.0000000), wk =   0.0092593
        k(    2) = (   0.1178511   0.1178511  -0.1178511), wk =   0.0740741
        k(    3) = (   0.2357023   0.2357023  -0.2357023), wk =   0.0740741
        k(    4) = (  -0.3535534  -0.3535534   0.3535534), wk =   0.0370370
        k(    5) = (   0.2357023   0.0000000   0.0000000), wk =   0.0555556
        k(    6) = (   0.3535534   0.1178511  -0.1178511), wk =   0.2222222
        k(    7) = (  -0.2357023  -0.4714045   0.4714045), wk =   0.2222222
        k(    8) = (  -0.1178511  -0.3535534   0.3535534), wk =   0.2222222
        k(    9) = (   0.0000000  -0.2357023   0.2357023), wk =   0.1111111
        k(   10) = (   0.4714045   0.0000000   0.0000000), wk =   0.0555556
        k(   11) = (  -0.1178511  -0.5892557   0.5892557), wk =   0.2222222
        k(   12) = (  -0.0000000  -0.4714045   0.4714045), wk =   0.1111111
        k(   13) = (  -0.7071068   0.0000000   0.0000000), wk =   0.0277778
        k(   14) = (  -0.2357023  -0.4714045   0.7071068), wk =   0.2222222
        k(   15) = (  -0.1178511  -0.3535534   0.5892557), wk =   0.2222222
        k(   16) = (  -0.7071068   0.2357023   0.0000000), wk =   0.1111111

     Dense  grid:    30923 G-vectors     FFT dimensions: (  45,  45,  45)

     Smooth grid:    11017 G-vectors     FFT dimensions: (  32,  32,  32)

     Estimated max dynamical RAM per process >      45.00 MB

     Check: negative core charge=   -0.000004

     Initial potential from superposition of free atoms

     starting charge      15.9991, renormalised to      16.0000
     Starting wfcs are    9 randomized atomic wfcs
     Checking if some PAW data can be deallocated... 

     total cpu time spent up to now is        0.7 secs

     per-process dynamical memory:    43.5 Mb

     Self-consistent Calculation

     iteration #  1     ecut=    75.00 Ry     beta= 0.70
     Davidson diagonalization with overlap
     ethr =  1.00E-02,  avg # of iterations =  1.9

     total cpu time spent up to now is        0.9 secs

     total energy              =    -183.11027431 Ry
     estimated scf accuracy    <       0.41643582 Ry

     iteration #  2     ecut=    75.00 Ry     beta= 0.70
     Davidson diagonalization with overlap
     ethr =  2.60E-03,  avg # of iterations =  4.2

     total cpu time spent up to now is        1.2 secs

     total energy              =    -183.23022832 Ry
     estimated scf accuracy    <       0.44901498 Ry

     iteration #  3     ecut=    75.00 Ry     beta= 0.70
     Davidson diagonalization with overlap
     ethr =  2.60E-03,  avg # of iterations =  2.0

     total cpu time spent up to now is        1.4 secs

     total energy              =    -183.31082047 Ry
     estimated scf accuracy    <       0.00512166 Ry

     iteration #  4     ecut=    75.00 Ry     beta= 0.70
     Davidson diagonalization with overlap
     ethr =  3.20E-05,  avg # of iterations =  5.9

     total cpu time spent up to now is        1.7 secs

     total energy              =    -183.31615845 Ry
     estimated scf accuracy    <       0.01066015 Ry

     iteration #  5     ecut=    75.00 Ry     beta= 0.70
     Davidson diagonalization with overlap
     ethr =  3.20E-05,  avg # of iterations =  2.0

     total cpu time spent up to now is        1.9 secs

     total energy              =    -183.31660132 Ry
     estimated scf accuracy    <       0.00126299 Ry

     iteration #  6     ecut=    75.00 Ry     beta= 0.70
     Davidson diagonalization with overlap
     ethr =  7.89E-06,  avg # of iterations =  3.6

     total cpu time spent up to now is        2.1 secs

     total energy              =    -183.31698970 Ry
     estimated scf accuracy    <       0.00001194 Ry

     iteration #  7     ecut=    75.00 Ry     beta= 0.70
     Davidson diagonalization with overlap
     ethr =  7.46E-08,  avg # of iterations =  3.4

     total cpu time spent up to now is        2.4 secs

     total energy              =    -183.31699460 Ry
     estimated scf accuracy    <       0.00000728 Ry

     iteration #  8     ecut=    75.00 Ry     beta= 0.70
     Davidson diagonalization with overlap
     ethr =  4.55E-08,  avg # of iterations =  2.0

     total cpu time spent up to now is        2.6 secs

     total energy              =    -183.31699482 Ry
     estimated scf accuracy    <       0.00000082 Ry

     iteration #  9     ecut=    75.00 Ry     beta= 0.70
     Davidson diagonalization with overlap
     ethr =  5.15E-09,  avg # of iterations =  4.0

     total cpu time spent up to now is        2.8 secs

     total energy              =    -183.31699517 Ry
     estimated scf accuracy    <       0.00000054 Ry

     iteration # 10     ecut=    75.00 Ry     beta= 0.70
     Davidson diagonalization with overlap
     ethr =  3.35E-09,  avg # of iterations =  2.0

     total cpu time spent up to now is        3.0 secs

     total energy              =    -183.31699526 Ry
     estimated scf accuracy    <       0.00000002 Ry

     iteration # 11     ecut=    75.00 Ry     beta= 0.70
     Davidson diagonalization with overlap
     ethr =  1.10E-10,  avg # of iterations =  4.2

     total cpu time spent up to now is        3.3 secs

     total energy              =    -183.31699527 Ry
     estimated scf accuracy    <          9.9E-09 Ry

     iteration # 12     ecut=    75.00 Ry     beta= 0.70
     Davidson diagonalization with overlap
     ethr =  6.17E-11,  avg # of iterations =  2.0

     total cpu time spent up to now is        3.5 secs

     total energy              =    -183.31699526 Ry
     estimated scf accuracy    <       0.00000003 Ry

     iteration # 13     ecut=    75.00 Ry     beta= 0.70
     Davidson diagonalization with overlap
     ethr =  6.17E-11,  avg # of iterations =  2.0

     total cpu time spent up to now is        3.7 secs

     total energy              =    -183.31699526 Ry
     estimated scf accuracy    <          1.6E-09 Ry

     iteration # 14     ecut=    75.00 Ry     beta= 0.70
     Davidson diagonalization with overlap
     ethr =  9.94E-12,  avg # of iterations =  3.5

     total cpu time spent up to now is        4.0 secs

     total energy              =    -183.31699526 Ry
     estimated scf accuracy    <          1.1E-10 Ry

     iteration # 15     ecut=    75.00 Ry     beta= 0.70
     Davidson diagonalization with overlap
     ethr =  6.90E-13,  avg # of iterations =  2.4

     total cpu time spent up to now is        4.2 secs

     End of self-consistent calculation

          k = 0.0000 0.0000 0.0000 (  1411 PWs)   bands (ev):

   -64.5046 -31.2263 -31.2263 -31.2263  -9.4391   7.8065   7.8065   7.8065

          k = 0.1179 0.1179-0.1179 (  1387 PWs)   bands (ev):

   -64.5024 -31.2475 -31.2283 -31.2283  -9.1488   6.3017   7.6330   7.6330

          k = 0.2357 0.2357-0.2357 (  1399 PWs)   bands (ev):

   -64.4980 -31.2909 -31.2327 -31.2327  -8.4986   4.1457   7.3083   7.3083

          k =-0.3536-0.3536 0.3536 (  1380 PWs)   bands (ev):

   -64.4959 -31.3119 -31.2348 -31.2348  -8.1263   3.2007   7.1556   7.1556

          k = 0.2357 0.0000 0.0000 (  1383 PWs)   bands (ev):

   -64.5017 -31.2459 -31.2332 -31.2332  -9.0619   6.2235   7.4215   7.4215

          k = 0.3536 0.1179-0.1179 (  1384 PWs)   bands (ev):

   -64.4980 -31.2770 -31.2389 -31.2385  -8.5505   4.7314   6.9464   7.0944

          k =-0.2357-0.4714 0.4714 (  1384 PWs)   bands (ev):

   -64.4952 -31.3020 -31.2466 -31.2397  -8.0787   3.6521   6.3749   6.9699

          k =-0.1179-0.3536 0.3536 (  1381 PWs)   bands (ev):

   -64.4959 -31.2955 -31.2498 -31.2348  -8.1896   3.9249   6.2645   7.1560

          k = 0.0000-0.2357 0.2357 (  1372 PWs)   bands (ev):

   -64.4995 -31.2677 -31.2410 -31.2291  -8.7445   5.1875   6.8756   7.4905

          k = 0.4714 0.0000 0.0000 (  1379 PWs)   bands (ev):

   -64.4959 -31.2826 -31.2473 -31.2473  -8.2938   4.3860   6.7580   6.7580

          k =-0.1179-0.5893 0.5893 (  1378 PWs)   bands (ev):

   -64.4937 -31.2921 -31.2598 -31.2496  -7.9691   4.0501   5.9200   6.6266

          k =-0.0000-0.4714 0.4714 (  1382 PWs)   bands (ev):

   -64.4937 -31.2821 -31.2775 -31.2433  -7.9171   4.5959   4.7637   6.8125

          k =-0.7071 0.0000 0.0000 (  1362 PWs)   bands (ev):

   -64.4930 -31.2987 -31.2545 -31.2545  -7.9067   3.7536   6.4671   6.4671

          k =-0.2357-0.4714 0.7071 (  1380 PWs)   bands (ev):

   -64.4952 -31.2871 -31.2573 -31.2424  -8.1379   4.2821   5.9689   6.7947

          k =-0.1179-0.3536 0.5893 (  1400 PWs)   bands (ev):

   -64.4937 -31.2898 -31.2663 -31.2475  -7.9171   4.2370   5.3558   6.5458

          k =-0.7071 0.2357 0.0000 (  1396 PWs)   bands (ev):

   -64.4930 -31.2879 -31.2658 -31.2564  -7.8589   4.2742   5.5809   6.1438

     highest occupied level (ev):     7.8065

!    total energy              =    -183.31699526 Ry
     total all-electron energy =      -551.434156 Ry
     estimated scf accuracy    <          9.7E-11 Ry

     The total energy is the sum of the following terms:
     one-electron contribution =     -88.08007908 Ry
     hartree contribution      =      49.28279604 Ry
     xc contribution           =     -25.29300828 Ry
     ewald contribution        =     -94.76809886 Ry
     one-center paw contrib.   =     -24.45860508 Ry

     convergence has been achieved in  15 iterations

     Writing all to output data dir ./out/mgo_polar.save/ :
     XML data file, charge density, pseudopotentials, collected wavefunctions

     init_run     :      0.63s CPU      0.66s WALL (       1 calls)
     electrons    :      3.42s CPU      3.47s WALL (       1 calls)

     Called by init_run:
     wfcinit      :      0.13s CPU      0.13s WALL (       1 calls)
     potinit      :      0.18s CPU      0.19s WALL (       1 calls)
     hinit0       :      0.30s CPU      0.30s WALL (       1 calls)

     Called by electrons:
     c_bands      :      1.84s CPU      1.87s WALL (      15 calls)
     sum_band     :      0.51s CPU      0.52s WALL (      15 calls)
     v_of_rho     :      0.26s CPU      0.27s WALL (      16 calls)
     newd         :      0.23s CPU      0.24s WALL (      16 calls)
     PAW_pot      :      0.60s CPU      0.61s WALL (      16 calls)
     mix_rho      :      0.03s CPU      0.03s WALL (      15 calls)

     Called by c_bands:
     init_us_2    :      0.06s CPU      0.06s WALL (     496 calls)
     cegterg      :      1.77s CPU      1.81s WALL (     240 calls)

     Called by *egterg:
     cdiaghg      :      0.03s CPU      0.03s WALL (     964 calls)
     h_psi        :      1.38s CPU      1.40s WALL (     980 calls)
     s_psi        :      0.10s CPU      0.10s WALL (     980 calls)
     g_psi        :      0.01s CPU      0.01s WALL (     724 calls)

     Called by h_psi:
     h_psi:calbec :      0.10s CPU      0.10s WALL (     980 calls)
     vloc_psi     :      1.18s CPU      1.19s WALL (     980 calls)
                                        0.00s GPU  (     980 calls)
     add_vuspsi   :      0.10s CPU      0.10s WALL (     980 calls)

     General routines
     calbec       :      0.13s CPU      0.13s WALL (    1220 calls)
     fft          :      0.18s CPU      0.18s WALL (     206 calls)
     ffts         :      0.09s CPU      0.09s WALL (      31 calls)
     fftw         :      1.19s CPU      1.22s WALL (   12470 calls)
     interpolate  :      0.10s CPU      0.10s WALL (      16 calls)

     Parallel routines

     PWSCF        :      4.11s CPU      4.19s WALL


   This run was terminated on:   2:55:57   5Aug2026            

=------------------------------------------------------------------------------=
   JOB DONE.
=------------------------------------------------------------------------------=
