
     Program PWSCF v.7.5 starts on  5Aug2026 at  4:29:23 

     This program is part of the open-source Quantum ESPRESSO suite
     for quantum simulation of materials; please cite
         "P. Giannozzi et al., J. Phys.:Condens. Matter 21 395502 (2009);
         "P. Giannozzi et al., J. Phys.:Condens. Matter 29 465901 (2017);
         "P. Giannozzi et al., J. Chem. Phys. 152 154105 (2020);
          URL http://www.quantum-espresso.org", 
     in publications or presentations arising from this work. More details at
     http://www.quantum-espresso.org/quote

     Parallel version (MPI), running on     1 processors

     MPI processes distributed on     1 nodes
     6353 MiB available memory on the printing compute node when the environment starts

     Reading input from al-eos-a7450.in

     Current dimensions of program PWSCF are:
     Max number of different atomic species (ntypx) = 10
     Max number of k-points (npk) =  40000
     Max angular momentum in pseudopotentials (lmaxx) =  4
     Message from routine setup:
     using ibrav=0 with symmetry is DISCOURAGED, use correct ibrav instead

     Subspace diagonalization in iterative solution of the eigenvalue problem:
     a serial algorithm will be used


     G-vector sticks info
     --------------------
     sticks:   dense  smooth     PW     G-vecs:    dense   smooth      PW
     Sum         451     235     85                 6423     2277     531

     Using Slab Decomposition



     bravais-lattice index     =            0
     lattice parameter (alat)  =       5.2679  a.u.
     unit-cell volume          =     103.3734 (a.u.)^3
     number of atoms/cell      =            1
     number of atomic types    =            1
     number of electrons       =         3.00
     number of Kohn-Sham states=            6
     kinetic-energy cutoff     =      30.0000  Ry
     charge density cutoff     =     240.0000  Ry
     scf convergence threshold =      1.0E-10
     mixing beta               =       0.7000
     number of iterations used =            8  plain     mixing
     Exchange-correlation= PBE
                           (   1   4   3   4   0   0   0)

     celldm(1)=   5.267946  celldm(2)=   0.000000  celldm(3)=   0.000000
     celldm(4)=   0.000000  celldm(5)=   0.000000  celldm(6)=   0.000000

     crystal axes: (cart. coord. in units of alat)
               a(1) = (  -0.707107   0.000000   0.707107 )  
               a(2) = (   0.000000   0.707107   0.707107 )  
               a(3) = (  -0.707107   0.707107   0.000000 )  

     reciprocal axes: (cart. coord. in units 2 pi/alat)
               b(1) = ( -0.707107 -0.707107  0.707107 )  
               b(2) = (  0.707107  0.707107  0.707107 )  
               b(3) = ( -0.707107  0.707107 -0.707107 )  


     PseudoPot. # 1 for Al read from file:
     ./pseudo/Al.pbe-n-rrkjus_psl.1.0.0.UPF
     MD5 check sum: bbe9f3f15d9b3b5ab9a58e4859ebdbfe
     Pseudo is Ultrasoft + core correction, Zval =  3.0
     Generated using &quot;atomic&quot; code by A. Dal Corso  v.6.3
     Using radial grid of 1135 points,  6 beta functions with: 
                l(1) =   0
                l(2) =   0
                l(3) =   1
                l(4) =   1
                l(5) =   2
                l(6) =   2
     Q(r) pseudized with 0 coefficients 


     atomic species   valence    mass     pseudopotential
     Al                3.00    26.98154     Al( 1.00)

     48 Sym. Ops., with inversion, found


                                    s                        frac. trans.

      isym =  1     identity                                     

 cryst.   s( 1) = (     1          0          0      )
                  (     0          1          0      )
                  (     0          0          1      )

 cart.    s( 1) = (  1.0000000  0.0000000  0.0000000 )
                  (  0.0000000  1.0000000  0.0000000 )
                  (  0.0000000  0.0000000  1.0000000 )


      isym =  2     180 deg rotation - cart. axis [0,0,1]        

 cryst.   s( 2) = (     0          1         -1      )
                  (     1          0         -1      )
                  (     0          0         -1      )

 cart.    s( 2) = ( -1.0000000  0.0000000  0.0000000 )
                  (  0.0000000 -1.0000000  0.0000000 )
                  (  0.0000000  0.0000000  1.0000000 )


      isym =  3     180 deg rotation - cart. axis [0,1,0]        

 cryst.   s( 3) = (    -1          0          0      )
                  (    -1          0          1      )
                  (    -1          1          0      )

 cart.    s( 3) = ( -1.0000000  0.0000000  0.0000000 )
                  (  0.0000000  1.0000000  0.0000000 )
                  (  0.0000000  0.0000000 -1.0000000 )


      isym =  4     180 deg rotation - cart. axis [1,0,0]        

 cryst.   s( 4) = (     0         -1          1      )
                  (     0         -1          0      )
                  (     1         -1          0      )

 cart.    s( 4) = (  1.0000000  0.0000000  0.0000000 )
                  (  0.0000000 -1.0000000  0.0000000 )
                  (  0.0000000  0.0000000 -1.0000000 )


      isym =  5     180 deg rotation - cart. axis [1,1,0]        

 cryst.   s( 5) = (     0         -1          0      )
                  (    -1          0          0      )
                  (     0          0         -1      )

 cart.    s( 5) = (  0.0000000  1.0000000  0.0000000 )
                  (  1.0000000  0.0000000  0.0000000 )
                  (  0.0000000  0.0000000 -1.0000000 )


      isym =  6     180 deg rotation - cart. axis [1,-1,0]       

 cryst.   s( 6) = (    -1          0          1      )
                  (     0         -1          1      )
                  (     0          0          1      )

 cart.    s( 6) = (  0.0000000 -1.0000000  0.0000000 )
                  ( -1.0000000  0.0000000  0.0000000 )
                  (  0.0000000  0.0000000 -1.0000000 )


      isym =  7      90 deg rotation - cart. axis [0,0,-1]       

 cryst.   s( 7) = (     0          1          0      )
                  (     0          1         -1      )
                  (    -1          1          0      )

 cart.    s( 7) = (  0.0000000  1.0000000  0.0000000 )
                  ( -1.0000000  0.0000000  0.0000000 )
                  (  0.0000000  0.0000000  1.0000000 )


      isym =  8      90 deg rotation - cart. axis [0,0,1]        

 cryst.   s( 8) = (     1          0         -1      )
                  (     1          0          0      )
                  (     1         -1          0      )

 cart.    s( 8) = (  0.0000000 -1.0000000  0.0000000 )
                  (  1.0000000  0.0000000  0.0000000 )
                  (  0.0000000  0.0000000  1.0000000 )


      isym =  9     180 deg rotation - cart. axis [1,0,1]        

 cryst.   s( 9) = (    -1          0          0      )
                  (     0          0         -1      )
                  (     0         -1          0      )

 cart.    s( 9) = (  0.0000000  0.0000000  1.0000000 )
                  (  0.0000000 -1.0000000  0.0000000 )
                  (  1.0000000  0.0000000  0.0000000 )


      isym = 10     180 deg rotation - cart. axis [-1,0,1]       

 cryst.   s(10) = (     1          0          0      )
                  (     1         -1          0      )
                  (     1          0         -1      )

 cart.    s(10) = (  0.0000000  0.0000000 -1.0000000 )
                  (  0.0000000 -1.0000000  0.0000000 )
                  ( -1.0000000  0.0000000  0.0000000 )


      isym = 11      90 deg rotation - cart. axis [0,1,0]        

 cryst.   s(11) = (     0          1         -1      )
                  (    -1          1          0      )
                  (     0          1          0      )

 cart.    s(11) = (  0.0000000  0.0000000  1.0000000 )
                  (  0.0000000  1.0000000  0.0000000 )
                  ( -1.0000000  0.0000000  0.0000000 )


      isym = 12      90 deg rotation - cart. axis [0,-1,0]       

 cryst.   s(12) = (     0         -1          1      )
                  (     0          0          1      )
                  (    -1          0          1      )

 cart.    s(12) = (  0.0000000  0.0000000 -1.0000000 )
                  (  0.0000000  1.0000000  0.0000000 )
                  (  1.0000000  0.0000000  0.0000000 )


      isym = 13     180 deg rotation - cart. axis [0,1,1]        

 cryst.   s(13) = (    -1          1          0      )
                  (     0          1          0      )
                  (     0          1         -1      )

 cart.    s(13) = ( -1.0000000  0.0000000  0.0000000 )
                  (  0.0000000  0.0000000  1.0000000 )
                  (  0.0000000  1.0000000  0.0000000 )


      isym = 14     180 deg rotation - cart. axis [0,1,-1]       

 cryst.   s(14) = (     0          0         -1      )
                  (     0         -1          0      )
                  (    -1          0          0      )

 cart.    s(14) = ( -1.0000000  0.0000000  0.0000000 )
                  (  0.0000000  0.0000000 -1.0000000 )
                  (  0.0000000 -1.0000000  0.0000000 )


      isym = 15      90 deg rotation - cart. axis [-1,0,0]       

 cryst.   s(15) = (     0          0          1      )
                  (    -1          0          1      )
                  (     0         -1          1      )

 cart.    s(15) = (  1.0000000  0.0000000  0.0000000 )
                  (  0.0000000  0.0000000  1.0000000 )
                  (  0.0000000 -1.0000000  0.0000000 )


      isym = 16      90 deg rotation - cart. axis [1,0,0]        

 cryst.   s(16) = (     1         -1          0      )
                  (     1          0         -1      )
                  (     1          0          0      )

 cart.    s(16) = (  1.0000000  0.0000000  0.0000000 )
                  (  0.0000000  0.0000000 -1.0000000 )
                  (  0.0000000  1.0000000  0.0000000 )


      isym = 17     120 deg rotation - cart. axis [-1,-1,-1]     

 cryst.   s(17) = (    -1          0          1      )
                  (    -1          1          0      )
                  (    -1          0          0      )

 cart.    s(17) = (  0.0000000  1.0000000  0.0000000 )
                  (  0.0000000  0.0000000  1.0000000 )
                  (  1.0000000  0.0000000  0.0000000 )


      isym = 18     120 deg rotation - cart. axis [-1,1,1]       

 cryst.   s(18) = (     0          1          0      )
                  (     0          0          1      )
                  (     1          0          0      )

 cart.    s(18) = (  0.0000000 -1.0000000  0.0000000 )
                  (  0.0000000  0.0000000  1.0000000 )
                  ( -1.0000000  0.0000000  0.0000000 )


      isym = 19     120 deg rotation - cart. axis [1,1,-1]       

 cryst.   s(19) = (     1          0         -1      )
                  (     0          0         -1      )
                  (     0          1         -1      )

 cart.    s(19) = (  0.0000000  1.0000000  0.0000000 )
                  (  0.0000000  0.0000000 -1.0000000 )
                  ( -1.0000000  0.0000000  0.0000000 )


      isym = 20     120 deg rotation - cart. axis [1,-1,1]       

 cryst.   s(20) = (     0         -1          0      )
                  (     1         -1          0      )
                  (     0         -1          1      )

 cart.    s(20) = (  0.0000000 -1.0000000  0.0000000 )
                  (  0.0000000  0.0000000 -1.0000000 )
                  (  1.0000000  0.0000000  0.0000000 )


      isym = 21     120 deg rotation - cart. axis [1,1,1]        

 cryst.   s(21) = (     0          0         -1      )
                  (     0          1         -1      )
                  (     1          0         -1      )

 cart.    s(21) = (  0.0000000  0.0000000  1.0000000 )
                  (  1.0000000  0.0000000  0.0000000 )
                  (  0.0000000  1.0000000  0.0000000 )


      isym = 22     120 deg rotation - cart. axis [-1,1,-1]      

 cryst.   s(22) = (    -1          1          0      )
                  (    -1          0          0      )
                  (    -1          0          1      )

 cart.    s(22) = (  0.0000000  0.0000000  1.0000000 )
                  ( -1.0000000  0.0000000  0.0000000 )
                  (  0.0000000 -1.0000000  0.0000000 )


      isym = 23     120 deg rotation - cart. axis [1,-1,-1]      

 cryst.   s(23) = (     0          0          1      )
                  (     1          0          0      )
                  (     0          1          0      )

 cart.    s(23) = (  0.0000000  0.0000000 -1.0000000 )
                  ( -1.0000000  0.0000000  0.0000000 )
                  (  0.0000000  1.0000000  0.0000000 )


      isym = 24     120 deg rotation - cart. axis [-1,-1,1]      

 cryst.   s(24) = (     1         -1          0      )
                  (     0         -1          1      )
                  (     0         -1          0      )

 cart.    s(24) = (  0.0000000  0.0000000 -1.0000000 )
                  (  1.0000000  0.0000000  0.0000000 )
                  (  0.0000000 -1.0000000  0.0000000 )


      isym = 25     inversion                                    

 cryst.   s(25) = (    -1          0          0      )
                  (     0         -1          0      )
                  (     0          0         -1      )

 cart.    s(25) = ( -1.0000000  0.0000000  0.0000000 )
                  (  0.0000000 -1.0000000  0.0000000 )
                  (  0.0000000  0.0000000 -1.0000000 )


      isym = 26     inv. 180 deg rotation - cart. axis [0,0,1]   

 cryst.   s(26) = (     0         -1          1      )
                  (    -1          0          1      )
                  (     0          0          1      )

 cart.    s(26) = (  1.0000000  0.0000000  0.0000000 )
                  (  0.0000000  1.0000000  0.0000000 )
                  (  0.0000000  0.0000000 -1.0000000 )


      isym = 27     inv. 180 deg rotation - cart. axis [0,1,0]   

 cryst.   s(27) = (     1          0          0      )
                  (     1          0         -1      )
                  (     1         -1          0      )

 cart.    s(27) = (  1.0000000  0.0000000  0.0000000 )
                  (  0.0000000 -1.0000000  0.0000000 )
                  (  0.0000000  0.0000000  1.0000000 )


      isym = 28     inv. 180 deg rotation - cart. axis [1,0,0]   

 cryst.   s(28) = (     0          1         -1      )
                  (     0          1          0      )
                  (    -1          1          0      )

 cart.    s(28) = ( -1.0000000  0.0000000  0.0000000 )
                  (  0.0000000  1.0000000  0.0000000 )
                  (  0.0000000  0.0000000  1.0000000 )


      isym = 29     inv. 180 deg rotation - cart. axis [1,1,0]   

 cryst.   s(29) = (     0          1          0      )
                  (     1          0          0      )
                  (     0          0          1      )

 cart.    s(29) = (  0.0000000 -1.0000000  0.0000000 )
                  ( -1.0000000  0.0000000  0.0000000 )
                  (  0.0000000  0.0000000  1.0000000 )


      isym = 30     inv. 180 deg rotation - cart. axis [1,-1,0]  

 cryst.   s(30) = (     1          0         -1      )
                  (     0          1         -1      )
                  (     0          0         -1      )

 cart.    s(30) = (  0.0000000  1.0000000  0.0000000 )
                  (  1.0000000  0.0000000  0.0000000 )
                  (  0.0000000  0.0000000  1.0000000 )


      isym = 31     inv.  90 deg rotation - cart. axis [0,0,-1]  

 cryst.   s(31) = (     0         -1          0      )
                  (     0         -1          1      )
                  (     1         -1          0      )

 cart.    s(31) = (  0.0000000 -1.0000000  0.0000000 )
                  (  1.0000000  0.0000000  0.0000000 )
                  (  0.0000000  0.0000000 -1.0000000 )


      isym = 32     inv.  90 deg rotation - cart. axis [0,0,1]   

 cryst.   s(32) = (    -1          0          1      )
                  (    -1          0          0      )
                  (    -1          1          0      )

 cart.    s(32) = (  0.0000000  1.0000000  0.0000000 )
                  ( -1.0000000  0.0000000  0.0000000 )
                  (  0.0000000  0.0000000 -1.0000000 )


      isym = 33     inv. 180 deg rotation - cart. axis [1,0,1]   

 cryst.   s(33) = (     1          0          0      )
                  (     0          0          1      )
                  (     0          1          0      )

 cart.    s(33) = (  0.0000000  0.0000000 -1.0000000 )
                  (  0.0000000  1.0000000  0.0000000 )
                  ( -1.0000000  0.0000000  0.0000000 )


      isym = 34     inv. 180 deg rotation - cart. axis [-1,0,1]  

 cryst.   s(34) = (    -1          0          0      )
                  (    -1          1          0      )
                  (    -1          0          1      )

 cart.    s(34) = (  0.0000000  0.0000000  1.0000000 )
                  (  0.0000000  1.0000000  0.0000000 )
                  (  1.0000000  0.0000000  0.0000000 )


      isym = 35     inv.  90 deg rotation - cart. axis [0,1,0]   

 cryst.   s(35) = (     0         -1          1      )
                  (     1         -1          0      )
                  (     0         -1          0      )

 cart.    s(35) = (  0.0000000  0.0000000 -1.0000000 )
                  (  0.0000000 -1.0000000  0.0000000 )
                  (  1.0000000  0.0000000  0.0000000 )


      isym = 36     inv.  90 deg rotation - cart. axis [0,-1,0]  

 cryst.   s(36) = (     0          1         -1      )
                  (     0          0         -1      )
                  (     1          0         -1      )

 cart.    s(36) = (  0.0000000  0.0000000  1.0000000 )
                  (  0.0000000 -1.0000000  0.0000000 )
                  ( -1.0000000  0.0000000  0.0000000 )


      isym = 37     inv. 180 deg rotation - cart. axis [0,1,1]   

 cryst.   s(37) = (     1         -1          0      )
                  (     0         -1          0      )
                  (     0         -1          1      )

 cart.    s(37) = (  1.0000000  0.0000000  0.0000000 )
                  (  0.0000000  0.0000000 -1.0000000 )
                  (  0.0000000 -1.0000000  0.0000000 )


      isym = 38     inv. 180 deg rotation - cart. axis [0,1,-1]  

 cryst.   s(38) = (     0          0          1      )
                  (     0          1          0      )
                  (     1          0          0      )

 cart.    s(38) = (  1.0000000  0.0000000  0.0000000 )
                  (  0.0000000  0.0000000  1.0000000 )
                  (  0.0000000  1.0000000  0.0000000 )


      isym = 39     inv.  90 deg rotation - cart. axis [-1,0,0]  

 cryst.   s(39) = (     0          0         -1      )
                  (     1          0         -1      )
                  (     0          1         -1      )

 cart.    s(39) = ( -1.0000000  0.0000000  0.0000000 )
                  (  0.0000000  0.0000000 -1.0000000 )
                  (  0.0000000  1.0000000  0.0000000 )


      isym = 40     inv.  90 deg rotation - cart. axis [1,0,0]   

 cryst.   s(40) = (    -1          1          0      )
                  (    -1          0          1      )
                  (    -1          0          0      )

 cart.    s(40) = ( -1.0000000  0.0000000  0.0000000 )
                  (  0.0000000  0.0000000  1.0000000 )
                  (  0.0000000 -1.0000000  0.0000000 )


      isym = 41     inv. 120 deg rotation - cart. axis [-1,-1,-1]

 cryst.   s(41) = (     1          0         -1      )
                  (     1         -1          0      )
                  (     1          0          0      )

 cart.    s(41) = (  0.0000000 -1.0000000  0.0000000 )
                  (  0.0000000  0.0000000 -1.0000000 )
                  ( -1.0000000  0.0000000  0.0000000 )


      isym = 42     inv. 120 deg rotation - cart. axis [-1,1,1]  

 cryst.   s(42) = (     0         -1          0      )
                  (     0          0         -1      )
                  (    -1          0          0      )

 cart.    s(42) = (  0.0000000  1.0000000  0.0000000 )
                  (  0.0000000  0.0000000 -1.0000000 )
                  (  1.0000000  0.0000000  0.0000000 )


      isym = 43     inv. 120 deg rotation - cart. axis [1,1,-1]  

 cryst.   s(43) = (    -1          0          1      )
                  (     0          0          1      )
                  (     0         -1          1      )

 cart.    s(43) = (  0.0000000 -1.0000000  0.0000000 )
                  (  0.0000000  0.0000000  1.0000000 )
                  (  1.0000000  0.0000000  0.0000000 )


      isym = 44     inv. 120 deg rotation - cart. axis [1,-1,1]  

 cryst.   s(44) = (     0          1          0      )
                  (    -1          1          0      )
                  (     0          1         -1      )

 cart.    s(44) = (  0.0000000  1.0000000  0.0000000 )
                  (  0.0000000  0.0000000  1.0000000 )
                  ( -1.0000000  0.0000000  0.0000000 )


      isym = 45     inv. 120 deg rotation - cart. axis [1,1,1]   

 cryst.   s(45) = (     0          0          1      )
                  (     0         -1          1      )
                  (    -1          0          1      )

 cart.    s(45) = (  0.0000000  0.0000000 -1.0000000 )
                  ( -1.0000000  0.0000000  0.0000000 )
                  (  0.0000000 -1.0000000  0.0000000 )


      isym = 46     inv. 120 deg rotation - cart. axis [-1,1,-1] 

 cryst.   s(46) = (     1         -1          0      )
                  (     1          0          0      )
                  (     1          0         -1      )

 cart.    s(46) = (  0.0000000  0.0000000 -1.0000000 )
                  (  1.0000000  0.0000000  0.0000000 )
                  (  0.0000000  1.0000000  0.0000000 )


      isym = 47     inv. 120 deg rotation - cart. axis [1,-1,-1] 

 cryst.   s(47) = (     0          0         -1      )
                  (    -1          0          0      )
                  (     0         -1          0      )

 cart.    s(47) = (  0.0000000  0.0000000  1.0000000 )
                  (  1.0000000  0.0000000  0.0000000 )
                  (  0.0000000 -1.0000000  0.0000000 )


      isym = 48     inv. 120 deg rotation - cart. axis [-1,-1,1] 

 cryst.   s(48) = (    -1          1          0      )
                  (     0          1         -1      )
                  (     0          1          0      )

 cart.    s(48) = (  0.0000000  0.0000000  1.0000000 )
                  ( -1.0000000  0.0000000  0.0000000 )
                  (  0.0000000  1.0000000  0.0000000 )


   Cartesian axes

     site n.     atom                  positions (alat units)
         1        Al     tau(   1) = (   0.0000000   0.0000000   0.0000000  )

   Crystallographic axes

     site n.     atom                  positions (cryst. coord.)
         1        Al     tau(   1) = (  0.0000000  0.0000000  0.0000000  )

     number of k points=    72  Marzari-Vanderbilt smearing, width (Ry)=  0.0200
                       cart. coord. in units 2pi/alat
        k(    1) = (   0.0000000   0.0000000   0.0000000), wk =   0.0011574
        k(    2) = (  -0.0589256   0.0589256  -0.0589256), wk =   0.0092593
        k(    3) = (  -0.1178511   0.1178511  -0.1178511), wk =   0.0092593
        k(    4) = (  -0.1767767   0.1767767  -0.1767767), wk =   0.0092593
        k(    5) = (  -0.2357023   0.2357023  -0.2357023), wk =   0.0092593
        k(    6) = (  -0.2946278   0.2946278  -0.2946278), wk =   0.0092593
        k(    7) = (   0.3535534  -0.3535534   0.3535534), wk =   0.0046296
        k(    8) = (   0.0000000   0.1178511   0.0000000), wk =   0.0069444
        k(    9) = (  -0.0589256   0.1767767  -0.0589256), wk =   0.0277778
        k(   10) = (  -0.1178511   0.2357023  -0.1178511), wk =   0.0277778
        k(   11) = (  -0.1767767   0.2946278  -0.1767767), wk =   0.0277778
        k(   12) = (  -0.2357023   0.3535534  -0.2357023), wk =   0.0277778
        k(   13) = (   0.4124790  -0.2946278   0.4124790), wk =   0.0277778
        k(   14) = (   0.3535534  -0.2357023   0.3535534), wk =   0.0277778
        k(   15) = (   0.2946278  -0.1767767   0.2946278), wk =   0.0277778
        k(   16) = (   0.2357023  -0.1178511   0.2357023), wk =   0.0277778
        k(   17) = (   0.1767767  -0.0589256   0.1767767), wk =   0.0277778
        k(   18) = (   0.1178511  -0.0000000   0.1178511), wk =   0.0138889
        k(   19) = (   0.0000000   0.2357023   0.0000000), wk =   0.0069444
        k(   20) = (  -0.0589256   0.2946278  -0.0589256), wk =   0.0277778
        k(   21) = (  -0.1178511   0.3535534  -0.1178511), wk =   0.0277778
        k(   22) = (  -0.1767767   0.4124790  -0.1767767), wk =   0.0277778
        k(   23) = (   0.4714045  -0.2357023   0.4714045), wk =   0.0277778
        k(   24) = (   0.4124790  -0.1767767   0.4124790), wk =   0.0277778
        k(   25) = (   0.3535534  -0.1178511   0.3535534), wk =   0.0277778
        k(   26) = (   0.2946278  -0.0589256   0.2946278), wk =   0.0277778
        k(   27) = (   0.2357023   0.0000000   0.2357023), wk =   0.0138889
        k(   28) = (   0.0000000   0.3535534   0.0000000), wk =   0.0069444
        k(   29) = (  -0.0589256   0.4124790  -0.0589256), wk =   0.0277778
        k(   30) = (  -0.1178511   0.4714045  -0.1178511), wk =   0.0277778
        k(   31) = (   0.5303301  -0.1767767   0.5303301), wk =   0.0277778
        k(   32) = (   0.4714045  -0.1178511   0.4714045), wk =   0.0277778
        k(   33) = (   0.4124790  -0.0589256   0.4124790), wk =   0.0277778
        k(   34) = (   0.3535534   0.0000000   0.3535534), wk =   0.0138889
        k(   35) = (   0.0000000   0.4714045   0.0000000), wk =   0.0069444
        k(   36) = (  -0.0589256   0.5303301  -0.0589256), wk =   0.0277778
        k(   37) = (   0.5892557  -0.1178511   0.5892557), wk =   0.0277778
        k(   38) = (   0.5303301  -0.0589256   0.5303301), wk =   0.0277778
        k(   39) = (   0.4714045  -0.0000000   0.4714045), wk =   0.0138889
        k(   40) = (   0.0000000   0.5892557   0.0000000), wk =   0.0069444
        k(   41) = (   0.6481812  -0.0589256   0.6481812), wk =   0.0277778
        k(   42) = (   0.5892557   0.0000000   0.5892557), wk =   0.0138889
        k(   43) = (   0.0000000  -0.7071068   0.0000000), wk =   0.0034722
        k(   44) = (  -0.1178511   0.2357023  -0.0000000), wk =   0.0277778
        k(   45) = (  -0.1767767   0.2946278  -0.0589256), wk =   0.0555556
        k(   46) = (  -0.2357023   0.3535534  -0.1178511), wk =   0.0555556
        k(   47) = (   0.4124790  -0.2946278   0.5303301), wk =   0.0555556
        k(   48) = (   0.3535534  -0.2357023   0.4714045), wk =   0.0277778
        k(   49) = (  -0.1178511   0.3535534   0.0000000), wk =   0.0277778
        k(   50) = (  -0.1767767   0.4124790  -0.0589256), wk =   0.0555556
        k(   51) = (   0.4714045  -0.2357023   0.5892557), wk =   0.0555556
        k(   52) = (   0.4124790  -0.1767767   0.5303301), wk =   0.0555556
        k(   53) = (   0.3535534  -0.1178511   0.4714045), wk =   0.0555556
        k(   54) = (   0.2946278  -0.0589256   0.4124790), wk =   0.0555556
        k(   55) = (   0.2357023   0.0000000   0.3535534), wk =   0.0277778
        k(   56) = (  -0.1178511   0.4714045   0.0000000), wk =   0.0277778
        k(   57) = (   0.5303301  -0.1767767   0.6481812), wk =   0.0555556
        k(   58) = (   0.4714045  -0.1178511   0.5892557), wk =   0.0555556
        k(   59) = (   0.4124790  -0.0589256   0.5303301), wk =   0.0555556
        k(   60) = (   0.3535534  -0.0000000   0.4714045), wk =   0.0277778
        k(   61) = (   0.5892557  -0.1178511   0.7071068), wk =   0.0277778
        k(   62) = (   0.5303301  -0.0589256   0.6481812), wk =   0.0555556
        k(   63) = (   0.4714045  -0.0000000   0.5892557), wk =   0.0277778
        k(   64) = (  -0.1178511  -0.7071068   0.0000000), wk =   0.0138889
        k(   65) = (   0.4714045  -0.2357023   0.7071068), wk =   0.0277778
        k(   66) = (   0.4124790  -0.1767767   0.6481812), wk =   0.0555556
        k(   67) = (   0.3535534  -0.1178511   0.5892557), wk =   0.0277778
        k(   68) = (   0.4714045  -0.1178511   0.7071068), wk =   0.0277778
        k(   69) = (   0.4124790  -0.0589256   0.6481812), wk =   0.0555556
        k(   70) = (   0.3535534   0.0000000   0.5892557), wk =   0.0277778
        k(   71) = (  -0.2357023  -0.7071068   0.0000000), wk =   0.0138889
        k(   72) = (  -0.3535534  -0.7071068   0.0000000), wk =   0.0069444

                       cryst. coord.
        k(    1) = (   0.0000000   0.0000000   0.0000000), wk =   0.0011574
        k(    2) = (   0.0000000   0.0000000   0.0833333), wk =   0.0092593
        k(    3) = (   0.0000000   0.0000000   0.1666667), wk =   0.0092593
        k(    4) = (   0.0000000   0.0000000   0.2500000), wk =   0.0092593
        k(    5) = (   0.0000000   0.0000000   0.3333333), wk =   0.0092593
        k(    6) = (   0.0000000   0.0000000   0.4166667), wk =   0.0092593
        k(    7) = (   0.0000000   0.0000000  -0.5000000), wk =   0.0046296
        k(    8) = (   0.0000000   0.0833333   0.0833333), wk =   0.0069444
        k(    9) = (   0.0000000   0.0833333   0.1666667), wk =   0.0277778
        k(   10) = (   0.0000000   0.0833333   0.2500000), wk =   0.0277778
        k(   11) = (   0.0000000   0.0833333   0.3333333), wk =   0.0277778
        k(   12) = (   0.0000000   0.0833333   0.4166667), wk =   0.0277778
        k(   13) = (   0.0000000   0.0833333  -0.5000000), wk =   0.0277778
        k(   14) = (   0.0000000   0.0833333  -0.4166667), wk =   0.0277778
        k(   15) = (   0.0000000   0.0833333  -0.3333333), wk =   0.0277778
        k(   16) = (   0.0000000   0.0833333  -0.2500000), wk =   0.0277778
        k(   17) = (   0.0000000   0.0833333  -0.1666667), wk =   0.0277778
        k(   18) = (   0.0000000   0.0833333  -0.0833333), wk =   0.0138889
        k(   19) = (   0.0000000   0.1666667   0.1666667), wk =   0.0069444
        k(   20) = (   0.0000000   0.1666667   0.2500000), wk =   0.0277778
        k(   21) = (   0.0000000   0.1666667   0.3333333), wk =   0.0277778
        k(   22) = (   0.0000000   0.1666667   0.4166667), wk =   0.0277778
        k(   23) = (   0.0000000   0.1666667  -0.5000000), wk =   0.0277778
        k(   24) = (   0.0000000   0.1666667  -0.4166667), wk =   0.0277778
        k(   25) = (   0.0000000   0.1666667  -0.3333333), wk =   0.0277778
        k(   26) = (   0.0000000   0.1666667  -0.2500000), wk =   0.0277778
        k(   27) = (   0.0000000   0.1666667  -0.1666667), wk =   0.0138889
        k(   28) = (   0.0000000   0.2500000   0.2500000), wk =   0.0069444
        k(   29) = (   0.0000000   0.2500000   0.3333333), wk =   0.0277778
        k(   30) = (   0.0000000   0.2500000   0.4166667), wk =   0.0277778
        k(   31) = (   0.0000000   0.2500000  -0.5000000), wk =   0.0277778
        k(   32) = (   0.0000000   0.2500000  -0.4166667), wk =   0.0277778
        k(   33) = (   0.0000000   0.2500000  -0.3333333), wk =   0.0277778
        k(   34) = (   0.0000000   0.2500000  -0.2500000), wk =   0.0138889
        k(   35) = (   0.0000000   0.3333333   0.3333333), wk =   0.0069444
        k(   36) = (   0.0000000   0.3333333   0.4166667), wk =   0.0277778
        k(   37) = (   0.0000000   0.3333333  -0.5000000), wk =   0.0277778
        k(   38) = (   0.0000000   0.3333333  -0.4166667), wk =   0.0277778
        k(   39) = (   0.0000000   0.3333333  -0.3333333), wk =   0.0138889
        k(   40) = (   0.0000000   0.4166667   0.4166667), wk =   0.0069444
        k(   41) = (   0.0000000   0.4166667  -0.5000000), wk =   0.0277778
        k(   42) = (   0.0000000   0.4166667  -0.4166667), wk =   0.0138889
        k(   43) = (   0.0000000  -0.5000000  -0.5000000), wk =   0.0034722
        k(   44) = (   0.0833333   0.1666667   0.2500000), wk =   0.0277778
        k(   45) = (   0.0833333   0.1666667   0.3333333), wk =   0.0555556
        k(   46) = (   0.0833333   0.1666667   0.4166667), wk =   0.0555556
        k(   47) = (   0.0833333   0.1666667  -0.5000000), wk =   0.0555556
        k(   48) = (   0.0833333   0.1666667  -0.4166667), wk =   0.0277778
        k(   49) = (   0.0833333   0.2500000   0.3333333), wk =   0.0277778
        k(   50) = (   0.0833333   0.2500000   0.4166667), wk =   0.0555556
        k(   51) = (   0.0833333   0.2500000  -0.5000000), wk =   0.0555556
        k(   52) = (   0.0833333   0.2500000  -0.4166667), wk =   0.0555556
        k(   53) = (   0.0833333   0.2500000  -0.3333333), wk =   0.0555556
        k(   54) = (   0.0833333   0.2500000  -0.2500000), wk =   0.0555556
        k(   55) = (   0.0833333   0.2500000  -0.1666667), wk =   0.0277778
        k(   56) = (   0.0833333   0.3333333   0.4166667), wk =   0.0277778
        k(   57) = (   0.0833333   0.3333333  -0.5000000), wk =   0.0555556
        k(   58) = (   0.0833333   0.3333333  -0.4166667), wk =   0.0555556
        k(   59) = (   0.0833333   0.3333333  -0.3333333), wk =   0.0555556
        k(   60) = (   0.0833333   0.3333333  -0.2500000), wk =   0.0277778
        k(   61) = (   0.0833333   0.4166667  -0.5000000), wk =   0.0277778
        k(   62) = (   0.0833333   0.4166667  -0.4166667), wk =   0.0555556
        k(   63) = (   0.0833333   0.4166667  -0.3333333), wk =   0.0277778
        k(   64) = (   0.0833333  -0.5000000  -0.4166667), wk =   0.0138889
        k(   65) = (   0.1666667   0.3333333  -0.5000000), wk =   0.0277778
        k(   66) = (   0.1666667   0.3333333  -0.4166667), wk =   0.0555556
        k(   67) = (   0.1666667   0.3333333  -0.3333333), wk =   0.0277778
        k(   68) = (   0.1666667   0.4166667  -0.4166667), wk =   0.0277778
        k(   69) = (   0.1666667   0.4166667  -0.3333333), wk =   0.0555556
        k(   70) = (   0.1666667   0.4166667  -0.2500000), wk =   0.0277778
        k(   71) = (   0.1666667  -0.5000000  -0.3333333), wk =   0.0138889
        k(   72) = (   0.2500000  -0.5000000  -0.2500000), wk =   0.0069444

     Dense  grid:     6423 G-vectors     FFT dimensions: (  25,  25,  25)

     Smooth grid:     2277 G-vectors     FFT dimensions: (  20,  20,  20)

     Dynamical RAM for                 wfc:       0.03 MB

     Dynamical RAM for     wfc (w. buffer):       1.92 MB

     Dynamical RAM for           str. fact:       0.10 MB

     Dynamical RAM for           local pot:       0.00 MB

     Dynamical RAM for          nlocal pot:       0.08 MB

     Dynamical RAM for                qrad:       1.24 MB

     Dynamical RAM for          rho,v,vnew:       0.65 MB

     Dynamical RAM for               rhoin:       0.22 MB

     Dynamical RAM for            rho*nmix:       1.57 MB

     Dynamical RAM for           G-vectors:       0.38 MB

     Dynamical RAM for          h,s,v(r/c):       0.01 MB

     Dynamical RAM for          <psi|beta>:       0.00 MB

     Dynamical RAM for                 psi:       0.05 MB

     Dynamical RAM for                hpsi:       0.05 MB

     Dynamical RAM for                spsi:       0.05 MB

     Dynamical RAM for      wfcinit/wfcrot:       0.05 MB

     Dynamical RAM for           addusdens:      18.33 MB

     Estimated static dynamical RAM per process >       5.38 MB

     Estimated max dynamical RAM per process >      25.28 MB

     Initial potential from superposition of free atoms

     starting charge       2.9977, renormalised to       3.0000
     Starting wfcs are    4 randomized atomic wfcs +    2 random wfcs

     total cpu time spent up to now is        0.4 secs

     per-process dynamical memory:    13.3 Mb

     Self-consistent Calculation

     iteration #  1     ecut=    30.00 Ry     beta= 0.70
     Davidson diagonalization with overlap

---- Real-time Memory Report at c_bands before calling an iterative solver
            50 MiB given to the printing process from OS
            13 MiB allocation reported by mallinfo(arena+hblkhd)
          6345 MiB available memory on the node where the printing process lives
------------------
     ethr =  1.00E-02,  avg # of iterations =  6.0

     Threshold (ethr) on eigenvalues was too large:
     Diagonalizing with lowered threshold

     Davidson diagonalization with overlap

---- Real-time Memory Report at c_bands before calling an iterative solver
            54 MiB given to the printing process from OS
            31 MiB allocation reported by mallinfo(arena+hblkhd)
          6345 MiB available memory on the node where the printing process lives
------------------
     ethr =  1.82E-04,  avg # of iterations =  3.1

     total cpu time spent up to now is        0.7 secs

     total energy              =      -5.03844027 Ry
     estimated scf accuracy    <       0.00541251 Ry

     iteration #  2     ecut=    30.00 Ry     beta= 0.70
     Davidson diagonalization with overlap

---- Real-time Memory Report at c_bands before calling an iterative solver
            54 MiB given to the printing process from OS
            31 MiB allocation reported by mallinfo(arena+hblkhd)
          6345 MiB available memory on the node where the printing process lives
------------------
     ethr =  1.80E-04,  avg # of iterations =  1.0

     total cpu time spent up to now is        0.8 secs

     total energy              =      -5.03841058 Ry
     estimated scf accuracy    <       0.00039786 Ry

     iteration #  3     ecut=    30.00 Ry     beta= 0.70
     Davidson diagonalization with overlap

---- Real-time Memory Report at c_bands before calling an iterative solver
            54 MiB given to the printing process from OS
            31 MiB allocation reported by mallinfo(arena+hblkhd)
          6345 MiB available memory on the node where the printing process lives
------------------
     ethr =  1.33E-05,  avg # of iterations =  2.6

     total cpu time spent up to now is        0.9 secs

     total energy              =      -5.03841860 Ry
     estimated scf accuracy    <       0.00000049 Ry

     iteration #  4     ecut=    30.00 Ry     beta= 0.70
     Davidson diagonalization with overlap

---- Real-time Memory Report at c_bands before calling an iterative solver
            54 MiB given to the printing process from OS
            32 MiB allocation reported by mallinfo(arena+hblkhd)
          6345 MiB available memory on the node where the printing process lives
------------------
     ethr =  1.64E-08,  avg # of iterations =  3.4

     total cpu time spent up to now is        1.0 secs

     total energy              =      -5.03841916 Ry
     estimated scf accuracy    <          3.8E-09 Ry

     iteration #  5     ecut=    30.00 Ry     beta= 0.70
     Davidson diagonalization with overlap

---- Real-time Memory Report at c_bands before calling an iterative solver
            54 MiB given to the printing process from OS
            32 MiB allocation reported by mallinfo(arena+hblkhd)
          6345 MiB available memory on the node where the printing process lives
------------------
     ethr =  1.28E-10,  avg # of iterations =  2.0

     total cpu time spent up to now is        1.1 secs

     End of self-consistent calculation

          k = 0.0000 0.0000 0.0000 (   283 PWs)   bands (ev):

    -2.9707  21.7311  21.7311  23.7945  23.7945  23.7945

     occupation numbers 
     1.0000   0.0000   0.0000   0.0000   0.0000   0.0000

          k =-0.0589 0.0589-0.0589 (   286 PWs)   bands (ev):

    -2.7724  19.1227  21.2491  21.2491  24.3097  24.5883

     occupation numbers 
     1.0000   0.0000   0.0000   0.0000   0.0000   0.0000

          k =-0.1179 0.1179-0.1179 (   295 PWs)   bands (ev):

    -2.1793  15.6266  20.5799  20.5799  24.0572  25.6511

     occupation numbers 
     1.0000   0.0000   0.0000   0.0000   0.0000   0.0000

          k =-0.1768 0.1768-0.1768 (   289 PWs)   bands (ev):

    -1.1968  12.2858  20.1420  20.1420  23.7843  24.1805

     occupation numbers 
     1.0000   0.0000   0.0000   0.0000   0.0000   0.0000

          k =-0.2357 0.2357-0.2357 (   287 PWs)   bands (ev):

     0.1664   9.2129  20.0021  20.0021  22.7243  22.7243

     occupation numbers 
     1.0000   0.0001   0.0000   0.0000   0.0000   0.0000

          k =-0.2946 0.2946-0.2946 (   281 PWs)   bands (ev):

     1.8974   6.4498  20.1703  20.1703  21.5782  21.5782

     occupation numbers 
     1.0000   1.0000   0.0000   0.0000   0.0000   0.0000

          k = 0.3536-0.3536 0.3536 (   272 PWs)   bands (ev):

     3.7936   4.2088  20.5032  20.5032  20.9172  20.9172

     occupation numbers 
     1.0000   1.0000   0.0000   0.0000   0.0000   0.0000

          k = 0.0000 0.1179 0.0000 (   299 PWs)   bands (ev):

    -2.7064  20.1078  20.1078  20.2307  23.1899  25.8082

     occupation numbers 
     1.0000   0.0000   0.0000   0.0000   0.0000   0.0000

          k =-0.0589 0.1768-0.0589 (   295 PWs)   bands (ev):

    -2.2451  16.8732  19.2170  20.4630  23.5696  24.0749

     occupation numbers 
     1.0000   0.0000   0.0000   0.0000   0.0000   0.0000

          k =-0.1179 0.2357-0.1179 (   293 PWs)   bands (ev):

    -1.3928  13.5069  18.6346  20.1521  22.1342  25.2550

     occupation numbers 
     1.0000   0.0000   0.0000   0.0000   0.0000   0.0000

          k =-0.1768 0.2946-0.1768 (   294 PWs)   bands (ev):

    -0.1570  10.3562  18.3742  19.8612  20.6075  25.0958

     occupation numbers 
     1.0000   0.0000   0.0000   0.0000   0.0000   0.0000

          k =-0.2357 0.3536-0.2357 (   285 PWs)   bands (ev):

     1.4510   7.4951  18.4412  19.0509  20.2124  23.8587

     occupation numbers 
     1.0000   1.0000   0.0000   0.0000   0.0000   0.0000

          k = 0.4125-0.2946 0.4125 (   280 PWs)   bands (ev):

     3.4026   4.9713  18.1208  18.8390  20.6038  22.9211

     occupation numbers 
     1.0000   1.0000   0.0000   0.0000   0.0000   0.0000

          k = 0.3536-0.2357 0.3536 (   280 PWs)   bands (ev):

     2.7199   5.7679  17.4989  19.5709  21.3665  22.3003

     occupation numbers 
     1.0000   1.0000   0.0000   0.0000   0.0000   0.0000

          k = 0.2946-0.1768 0.2946 (   290 PWs)   bands (ev):

     0.8746   8.4116  17.2155  20.6377  21.9961  22.4631

     occupation numbers 
     1.0000   0.8595   0.0000   0.0000   0.0000   0.0000

          k = 0.2357-0.1179 0.2357 (   290 PWs)   bands (ev):

    -0.6109  11.3680  17.2787  21.9697  22.0578  23.8579

     occupation numbers 
     1.0000   0.0000   0.0000   0.0000   0.0000   0.0000

          k = 0.1768-0.0589 0.1768 (   292 PWs)   bands (ev):

    -1.7199  14.5734  17.7062  22.2246  23.7102  25.0213

     occupation numbers 
     1.0000   0.0000   0.0000   0.0000   0.0000   0.0000

          k = 0.1179-0.0000 0.1179 (   291 PWs)   bands (ev):

    -2.4426  17.6434  18.7695  22.2478  24.1271  24.9593

     occupation numbers 
     1.0000   0.0000   0.0000   0.0000   0.0000   0.0000

          k = 0.0000 0.2357 0.0000 (   295 PWs)   bands (ev):

    -1.9166  18.0930  18.1769  18.1769  21.5718  22.0245

     occupation numbers 
     1.0000   0.0000   0.0000   0.0000   0.0000   0.0000

          k =-0.0589 0.2946-0.0589 (   297 PWs)   bands (ev):

    -1.1969  14.9776  17.4667  18.6752  19.6817  22.2218

     occupation numbers 
     1.0000   0.0000   0.0000   0.0000   0.0000   0.0000

          k =-0.1179 0.3536-0.1179 (   291 PWs)   bands (ev):

    -0.0925  11.8174  17.0878  17.7077  18.8546  24.0292

     occupation numbers 
     1.0000   0.0000   0.0000   0.0000   0.0000   0.0000

          k =-0.1768 0.4125-0.1768 (   284 PWs)   bands (ev):

     1.3865   8.8871  16.3114  17.0407  18.8547  26.3698

     occupation numbers 
     1.0000   0.0200   0.0000   0.0000   0.0000   0.0000

          k = 0.4714-0.2357 0.4714 (   283 PWs)   bands (ev):

     3.2217   6.2604  15.2141  17.3266  19.1970  25.4431

     occupation numbers 
     1.0000   1.0000   0.0000   0.0000   0.0000   0.0000

          k = 0.4125-0.1768 0.4125 (   288 PWs)   bands (ev):

     3.9018   5.4630  14.4628  17.9477  19.8905  24.7223

     occupation numbers 
     1.0000   1.0000   0.0000   0.0000   0.0000   0.0000

          k = 0.3536-0.1179 0.3536 (   284 PWs)   bands (ev):

     1.9610   7.9549  14.0790  18.9056  20.9286  24.3051

     occupation numbers 
     1.0000   1.0184   0.0000   0.0000   0.0000   0.0000

          k = 0.2946-0.0589 0.2946 (   288 PWs)   bands (ev):

     0.3598  10.7264  14.1121  20.1988  22.2851  24.1485

     occupation numbers 
     1.0000   0.0000   0.0000   0.0000   0.0000   0.0000

          k = 0.2357 0.0000 0.2357 (   295 PWs)   bands (ev):

    -0.8710  13.3185  14.9689  21.8154  23.7906  23.8978

     occupation numbers 
     1.0000   0.0000   0.0000   0.0000   0.0000   0.0000

          k = 0.0000 0.3536 0.0000 (   290 PWs)   bands (ev):

    -0.6111  16.3138  16.6365  16.6365  17.2982  20.5604

     occupation numbers 
     1.0000   0.0000   0.0000   0.0000   0.0000   0.0000

          k =-0.0589 0.4125-0.0589 (   296 PWs)   bands (ev):

     0.3591  13.5206  15.3639  16.1416  17.3606  21.0040

     occupation numbers 
     1.0000   0.0000   0.0000   0.0000   0.0000   0.0000

          k =-0.1179 0.4714-0.1179 (   290 PWs)   bands (ev):

     1.7040  10.5891  13.7840  15.9803  17.5798  23.0254

     occupation numbers 
     1.0000   0.0000   0.0000   0.0000   0.0000   0.0000

          k = 0.5303-0.1768 0.5303 (   283 PWs)   bands (ev):

     3.4074   7.8975  12.5441  16.1526  17.8850  25.6611

     occupation numbers 
     1.0000   1.0094   0.0000   0.0000   0.0000   0.0000

          k = 0.4714-0.1179 0.4714 (   280 PWs)   bands (ev):

     5.2512   5.7062  11.6729  16.6594  18.4980  27.4650

     occupation numbers 
     1.0000   1.0000   0.0000   0.0000   0.0000   0.0000

          k = 0.4125-0.0589 0.4125 (   283 PWs)   bands (ev):

     3.4141   7.8017  11.2320  17.5026  19.4535  26.9462

     occupation numbers 
     1.0000   1.0025   0.0000   0.0000   0.0000   0.0000

          k = 0.3536 0.0000 0.3536 (   283 PWs)   bands (ev):

     1.7063   9.9255  11.6768  18.6831  20.7360  26.3314

     occupation numbers 
     1.0000   0.0000   0.0000   0.0000   0.0000   0.0000

          k = 0.0000 0.4714 0.0000 (   302 PWs)   bands (ev):

     1.1928  13.2615  15.0180  15.5324  15.5324  19.4463

     occupation numbers 
     1.0000   0.0000   0.0000   0.0000   0.0000   0.0000

          k =-0.0589 0.5303-0.0589 (   285 PWs)   bands (ev):

     2.3988  11.4813  12.6157  15.2578  16.3623  20.1200

     occupation numbers 
     1.0000   0.0000   0.0000   0.0000   0.0000   0.0000

          k = 0.5893-0.1179 0.5893 (   290 PWs)   bands (ev):

     3.9570   9.6776  10.3721  15.3167  16.8210  22.3875

     occupation numbers 
     1.0000   0.0000   0.0000   0.0000   0.0000   0.0000

          k = 0.5303-0.0589 0.5303 (   282 PWs)   bands (ev):

     5.7980   7.3694   9.2944  15.7094  17.3850  25.2735

     occupation numbers 
     1.0000   1.0000   0.0000   0.0000   0.0000   0.0000

          k = 0.4714-0.0000 0.4714 (   284 PWs)   bands (ev):

     5.2133   7.5091   9.2124  16.4373  18.2559  28.3309

     occupation numbers 
     1.0000   1.0000   0.0001   0.0000   0.0000   0.0000

          k = 0.0000 0.5893 0.0000 (   290 PWs)   bands (ev):

     3.4569   9.6475  14.2345  14.8705  14.8705  18.7335

     occupation numbers 
     1.0000   0.0000   0.0000   0.0000   0.0000   0.0000

          k = 0.6482-0.0589 0.6482 (   289 PWs)   bands (ev):

     4.8293   8.1790  12.1018  14.8165  15.8638  19.6597

     occupation numbers 
     1.0000   1.0819   0.0000   0.0000   0.0000   0.0000

          k = 0.5893 0.0000 0.5893 (   280 PWs)   bands (ev):

     6.0651   7.5378   9.7098  15.0958  16.5656  22.1698

     occupation numbers 
     1.0000   1.0000   0.0000   0.0000   0.0000   0.0000

          k = 0.0000-0.7071 0.0000 (   302 PWs)   bands (ev):

     5.5850   7.0683  13.9725  14.6500  14.6500  18.4890

     occupation numbers 
     1.0000   1.0000   0.0000   0.0000   0.0000   0.0000

          k =-0.1179 0.2357-0.0000 (   296 PWs)   bands (ev):

    -1.6544  15.4951  16.8794  21.1636  21.9386  23.3956

     occupation numbers 
     1.0000   0.0000   0.0000   0.0000   0.0000   0.0000

          k =-0.1768 0.2946-0.0589 (   290 PWs)   bands (ev):

    -0.6759  12.6561  15.9230  20.0710  21.4439  24.7142

     occupation numbers 
     1.0000   0.0000   0.0000   0.0000   0.0000   0.0000

          k =-0.2357 0.3536-0.1179 (   287 PWs)   bands (ev):

     0.6817   9.6658  15.6829  18.5282  21.4665  24.3237

     occupation numbers 
     1.0000   0.0000   0.0000   0.0000   0.0000   0.0000

          k = 0.4125-0.2946 0.5303 (   285 PWs)   bands (ev):

     2.4047   6.9334  15.8140  17.3394  21.7106  23.1521

     occupation numbers 
     1.0000   1.0000   0.0000   0.0000   0.0000   0.0000

          k = 0.3536-0.2357 0.4714 (   288 PWs)   bands (ev):

     4.2804   4.7186  16.0951  16.7063  22.1797  22.3624

     occupation numbers 
     1.0000   1.0000   0.0000   0.0000   0.0000   0.0000

          k =-0.1179 0.3536 0.0000 (   293 PWs)   bands (ev):

    -0.3515  13.8036  15.2700  17.6493  19.6120  22.1444

     occupation numbers 
     1.0000   0.0000   0.0000   0.0000   0.0000   0.0000

          k =-0.1768 0.4125-0.0589 (   287 PWs)   bands (ev):

     0.8738  11.1980  14.4619  16.0075  20.1547  23.6651

     occupation numbers 
     1.0000   0.0000   0.0000   0.0000   0.0000   0.0000

          k = 0.4714-0.2357 0.5893 (   288 PWs)   bands (ev):

     2.4668   8.4371  14.1710  14.9362  20.4306  25.6411

     occupation numbers 
     1.0000   0.7988   0.0000   0.0000   0.0000   0.0000

          k = 0.4125-0.1768 0.5303 (   286 PWs)   bands (ev):

     4.3931   5.9582  13.4464  15.0533  20.9214  24.8908

     occupation numbers 
     1.0000   1.0000   0.0000   0.0000   0.0000   0.0000

          k = 0.3536-0.1179 0.4714 (   286 PWs)   bands (ev):

     3.7240   6.7266  12.8600  15.7703  21.7172  24.2331

     occupation numbers 
     1.0000   1.0000   0.0000   0.0000   0.0000   0.0000

          k = 0.2946-0.0589 0.4125 (   284 PWs)   bands (ev):

     1.8970   9.2645  12.6715  16.8687  22.8147  23.8122

     occupation numbers 
     1.0000   0.0000   0.0000   0.0000   0.0000   0.0000

          k = 0.2357 0.0000 0.3536 (   286 PWs)   bands (ev):

     0.4241  11.6216  13.3335  18.3146  23.1389  24.1216

     occupation numbers 
     1.0000   0.0000   0.0000   0.0000   0.0000   0.0000

          k =-0.1179 0.4714 0.0000 (   289 PWs)   bands (ev):

     1.4487  12.5889  13.3321  14.4046  18.4443  21.1120

     occupation numbers 
     1.0000   0.0000   0.0000   0.0000   0.0000   0.0000

          k = 0.5303-0.1768 0.6482 (   289 PWs)   bands (ev):

     2.9047  10.1999  11.9909  13.7450  19.2294  22.8596

     occupation numbers 
     1.0000   0.0000   0.0000   0.0000   0.0000   0.0000

          k = 0.4714-0.1179 0.5893 (   288 PWs)   bands (ev):

     4.7000   7.6889  10.9187  13.9190  19.7489  25.5177

     occupation numbers 
     1.0000   1.0004   0.0000   0.0000   0.0000   0.0000

          k = 0.4125-0.0589 0.5303 (   281 PWs)   bands (ev):

     5.3842   6.8369  10.2373  14.5356  20.4809  26.9891

     occupation numbers 
     1.0000   1.0000   0.0000   0.0000   0.0000   0.0000

          k = 0.3536-0.0000 0.4714 (   283 PWs)   bands (ev):

     3.4762   8.7159  10.4372  15.5270  21.5111  26.0581

     occupation numbers 
     1.0000   0.1448   0.0000   0.0000   0.0000   0.0000

          k = 0.5893-0.1179 0.7071 (   288 PWs)   bands (ev):

     3.7073   9.8721  11.8583  13.5557  17.7351  20.4503

     occupation numbers 
     1.0000   0.0000   0.0000   0.0000   0.0000   0.0000

          k = 0.5303-0.0589 0.6482 (   284 PWs)   bands (ev):

     5.3201   8.6119   9.8314  13.2130  18.7574  22.4361

     occupation numbers 
     1.0000   0.3373   0.0000   0.0000   0.0000   0.0000

          k = 0.4714-0.0000 0.5893 (   282 PWs)   bands (ev):

     6.7864   7.3019   8.5386  13.6657  19.5164  25.3393

     occupation numbers 
     1.0000   1.0000   0.5253   0.0000   0.0000   0.0000

          k =-0.1179-0.7071 0.0000 (   284 PWs)   bands (ev):

     5.8249   7.3158  11.6145  13.3085  17.4980  20.2237

     occupation numbers 
     1.0000   1.0000   0.0000   0.0000   0.0000   0.0000

          k = 0.4714-0.2357 0.7071 (   288 PWs)   bands (ev):

     2.2132  10.4093  12.0650  14.4305  22.0561  24.0602

     occupation numbers 
     1.0000   0.0000   0.0000   0.0000   0.0000   0.0000

          k = 0.4125-0.1768 0.6482 (   284 PWs)   bands (ev):

     3.9092   8.2836  11.5951  13.2383  22.9681  24.5257

     occupation numbers 
     1.0000   1.0549   0.0000   0.0000   0.0000   0.0000

          k = 0.3536-0.1179 0.5893 (   282 PWs)   bands (ev):

     5.7353   6.1833  11.7283  12.6782  23.4800  23.8506

     occupation numbers 
     1.0000   1.0000   0.0000   0.0000   0.0000   0.0000

          k = 0.4714-0.1179 0.7071 (   289 PWs)   bands (ev):

     4.4553   9.6821  10.3896  11.7928  21.3655  23.5235

     occupation numbers 
     1.0000   0.0000   0.0000   0.0000   0.0000   0.0000

          k = 0.4125-0.0589 0.6482 (   282 PWs)   bands (ev):

     6.2877   7.7721   9.6285  11.4667  22.5333  25.6664

     occupation numbers 
     1.0000   1.0016   0.0000   0.0000   0.0000   0.0000

          k = 0.3536 0.0000 0.5893 (   280 PWs)   bands (ev):

     5.6864   7.9912   9.6145  12.0986  23.4343  25.4347

     occupation numbers 
     1.0000   1.0266   0.0000   0.0000   0.0000   0.0000

          k =-0.2357-0.7071 0.0000 (   282 PWs)   bands (ev):

     6.5458   8.0205   9.4398  11.3758  21.1321  23.3272

     occupation numbers 
     1.0000   1.0347   0.0000   0.0000   0.0000   0.0000

          k =-0.3536-0.7071 0.0000 (   280 PWs)   bands (ev):

     7.7498   7.7498   8.7261  10.2277  25.2135  26.0460

     occupation numbers 
     1.0011   1.0011   0.1313   0.0000   0.0000   0.0000

     the Fermi energy is     8.5858 ev

!    total energy              =      -5.03841916 Ry
     estimated scf accuracy    <          1.9E-11 Ry
     smearing contrib. (-TS)   =      -0.00009532 Ry
     internal energy E=F+TS    =      -5.03832384 Ry

     The total energy is F=E-TS. E is the sum of the following terms:
     one-electron contribution =       3.12573836 Ry
     hartree contribution      =       0.00660788 Ry
     xc contribution           =      -2.63191053 Ry
     ewald contribution        =      -5.53875955 Ry

     convergence has been achieved in   5 iterations

     Writing all to output data dir ./tmp/al-eos-a7450.save/ :
     XML data file, charge density, pseudopotentials, collected wavefunctions

     init_run     :      0.36s CPU      0.37s WALL (       1 calls)
     electrons    :      0.63s CPU      0.68s WALL (       1 calls)

     Called by init_run:
     wfcinit      :      0.11s CPU      0.11s WALL (       1 calls)
     wfcinit:atom :      0.00s CPU      0.00s WALL (      72 calls)
     wfcinit:wfcr :      0.10s CPU      0.10s WALL (      72 calls)
     potinit      :      0.09s CPU      0.09s WALL (       1 calls)
     hinit0       :      0.15s CPU      0.15s WALL (       1 calls)

     Called by electrons:
     c_bands      :      0.45s CPU      0.49s WALL (       6 calls)
     sum_band     :      0.12s CPU      0.13s WALL (       6 calls)
     v_of_rho     :      0.01s CPU      0.01s WALL (       6 calls)
     v_h          :      0.00s CPU      0.00s WALL (       6 calls)
     v_xc         :      0.01s CPU      0.01s WALL (       6 calls)
     newd         :      0.05s CPU      0.06s WALL (       6 calls)
     mix_rho      :      0.00s CPU      0.00s WALL (       6 calls)

     Called by c_bands:
     init_us_2    :      0.03s CPU      0.03s WALL (     936 calls)
     cegterg      :      0.41s CPU      0.45s WALL (     432 calls)

     Called by sum_band:
     sum_band:wei :      0.00s CPU      0.00s WALL (       6 calls)
     sum_band:loo :      0.06s CPU      0.07s WALL (       6 calls)
     sum_band:buf :      0.00s CPU      0.00s WALL (     432 calls)
     sum_band:ini :      0.01s CPU      0.01s WALL (     432 calls)
     sum_band:cal :      0.01s CPU      0.01s WALL (     432 calls)
     sum_band:bec :      0.00s CPU      0.00s WALL (     432 calls)
     addusdens    :      0.06s CPU      0.06s WALL (       6 calls)
                                        0.00s GPU  (       6 calls)
     addusd:skk   :      0.00s CPU      0.00s WALL (       6 calls)
                                        0.00s GPU  (       6 calls)

     Called by *egterg:
     cdiaghg      :      0.03s CPU      0.03s WALL (    1669 calls)
     cegterg:over :      0.02s CPU      0.03s WALL (    1309 calls)
     cegterg:upda :      0.01s CPU      0.02s WALL (    1309 calls)
     cegterg:last :      0.03s CPU      0.03s WALL (     911 calls)
     h_psi        :      0.35s CPU      0.37s WALL (    1813 calls)
     s_psi        :      0.03s CPU      0.04s WALL (    1813 calls)
     g_psi        :      0.00s CPU      0.00s WALL (    1309 calls)

     Called by h_psi:
     h_psi:calbec :      0.03s CPU      0.04s WALL (    1813 calls)
     vloc_psi     :      0.28s CPU      0.30s WALL (    1813 calls)
                                        0.00s GPU  (    1813 calls)
     add_vuspsi   :      0.03s CPU      0.04s WALL (    1813 calls)

     General routines
     calbec       :      0.04s CPU      0.05s WALL (    2245 calls)
     fft          :      0.03s CPU      0.03s WALL (      77 calls)
     ffts         :      0.08s CPU      0.08s WALL (      12 calls)
     fftw         :      0.25s CPU      0.27s WALL (   17468 calls)
     interpolate  :      0.08s CPU      0.08s WALL (       6 calls)

     Parallel routines

     PWSCF        :      1.04s CPU      1.10s WALL


   This run was terminated on:   4:29:24   5Aug2026            

=------------------------------------------------------------------------------=
   JOB DONE.
=------------------------------------------------------------------------------=
