16
Lattice="0.0 5.430399999999999 5.430399999999999 5.430399999999999 0.0 5.430399999999999 5.430399999999999 5.430399999999999 0.0" Properties=species:S:1:pos:R:3 pbc="T T T"
Si       0.00000000       0.00000000       0.00000000
Si       1.35760000       1.35760000       1.35760000
Si       2.71520000       2.71520000       0.00000000
Si       4.07280000       4.07280000       1.35760000
Si       2.71520000       0.00000000       2.71520000
Si       4.07280000       1.35760000       4.07280000
Si       5.43040000       2.71520000       2.71520000
Si       6.78800000       4.07280000       4.07280000
Si       0.00000000       2.71520000       2.71520000
Si       1.35760000       4.07280000       4.07280000
Si       2.71520000       5.43040000       2.71520000
Si       4.07280000       6.78800000       4.07280000
Si       2.71520000       2.71520000       5.43040000
Si       4.07280000       4.07280000       6.78800000
Si       5.43040000       5.43040000       5.43040000
Si       6.78800000       6.78800000       6.78800000
