8
Lattice="5.4304 0.0 0.0 0.0 5.4304 0.0 0.0 0.0 5.4304" Properties=species:S:1:pos:R:3:spacegroup_kinds:I:1 spacegroup="F d -3 m" unit_cell=conventional pbc="T T T"
Si       0.00000000       0.00000000       0.00000000        0
Si       0.00000000       2.71520000       2.71520000        0
Si       2.71520000       0.00000000       2.71520000        0
Si       2.71520000       2.71520000       0.00000000        0
Si       4.07280000       4.07280000       1.35760000        0
Si       4.07280000       1.35760000       4.07280000        0
Si       1.35760000       4.07280000       4.07280000        0
Si       1.35760000       1.35760000       1.35760000        0
