
     Program PWSCF v.7.5 starts on  5Aug2026 at  2:41:54 

     This program is part of the open-source Quantum ESPRESSO suite
     for quantum simulation of materials; please cite
         "P. Giannozzi et al., J. Phys.:Condens. Matter 21 395502 (2009);
         "P. Giannozzi et al., J. Phys.:Condens. Matter 29 465901 (2017);
         "P. Giannozzi et al., J. Chem. Phys. 152 154105 (2020);
          URL http://www.quantum-espresso.org", 
     in publications or presentations arising from this work. More details at
     http://www.quantum-espresso.org/quote

     Parallel version (MPI), running on     1 processors

     MPI processes distributed on     1 nodes
     4866 MiB available memory on the printing compute node when the environment starts

     Reading input from al111-h-fcc-scf.in

     Current dimensions of program PWSCF are:
     Max number of different atomic species (ntypx) = 10
     Max number of k-points (npk) =  40000
     Max angular momentum in pseudopotentials (lmaxx) =  4
     file Al.pbe-n-kjpaw_psl.1.0.0.UPF: wavefunction(s)  3S 3P renormalized
     file H.pbe-kjpaw_psl.1.0.0.UPF: wavefunction(s)  1S renormalized
     Message from routine setup:
     using ibrav=0 with symmetry is DISCOURAGED, use correct ibrav instead

     Subspace diagonalization in iterative solution of the eigenvalue problem:
     a serial algorithm will be used


     G-vector sticks info
     --------------------
     sticks:   dense  smooth     PW     G-vecs:    dense   smooth      PW
     Sum        5165    2581    721              1712349   605471   87421

     Using Slab Decomposition



     bravais-lattice index     =            0
     lattice parameter (alat)  =      10.8235  a.u.
     unit-cell volume          =    6262.4945 (a.u.)^3
     number of atoms/cell      =           17
     number of atomic types    =            2
     number of electrons       =        49.00
     number of Kohn-Sham states=           30
     kinetic-energy cutoff     =      80.0000  Ry
     charge density cutoff     =     640.0000  Ry
     scf convergence threshold =      1.0E-08
     mixing beta               =       0.7000
     number of iterations used =            8  plain     mixing
     Exchange-correlation= SLA  PW   PBX  PBC
                           (   1   4   3   4   0   0   0)

     celldm(1)=  10.823529  celldm(2)=   0.000000  celldm(3)=   0.000000
     celldm(4)=   0.000000  celldm(5)=   0.000000  celldm(6)=   0.000000

     crystal axes: (cart. coord. in units of alat)
               a(1) = (   1.000000   0.000000   0.000000 )  
               a(2) = (   0.000000   0.866025   0.000000 )  
               a(3) = (   0.000000   0.000000   5.703088 )  

     reciprocal axes: (cart. coord. in units 2 pi/alat)
               b(1) = (  1.000000  0.000000  0.000000 )  
               b(2) = (  0.000000  1.154701  0.000000 )  
               b(3) = (  0.000000  0.000000  0.175344 )  


     PseudoPot. # 1 for Al read from file:
     ./pseudo/Al.pbe-n-kjpaw_psl.1.0.0.UPF
     MD5 check sum: cfc449ca30b5f3223ec38ddd88ac046d
     Pseudo is Projector augmented-wave + core cor, Zval =  3.0
     Generated using "atomic" code by A. Dal Corso  v.5.1
     Shape of augmentation charge: PSQ
     Using radial grid of 1135 points,  6 beta functions with: 
                l(1) =   0
                l(2) =   0
                l(3) =   1
                l(4) =   1
                l(5) =   2
                l(6) =   2
     Q(r) pseudized with 0 coefficients 


     PseudoPot. # 2 for H  read from file:
     ./pseudo/H.pbe-kjpaw_psl.1.0.0.UPF
     MD5 check sum: d81a744832360e4a8af0b0b5b123bc2a
     Pseudo is Projector augmented-wave, Zval =  1.0
     Generated using &quot;atomic&quot; code by A. Dal Corso  v.6.3MaX
     Shape of augmentation charge: PSQ
     Using radial grid of  929 points,  2 beta functions with: 
                l(1) =   0
                l(2) =   0
     Q(r) pseudized with 0 coefficients 


     atomic species   valence    mass     pseudopotential
     Al                3.00    26.98154     Al( 1.00)
     H                 1.00     1.00800     H ( 1.00)

      2 Sym. Ops. (no inversion) found ( 1 have fractional translation)



   Cartesian axes

     site n.     atom                  positions (alat units)
         1        Al     tau(   1) = (   0.0000000   0.0000000   2.0951312  )
         2        Al     tau(   2) = (   0.5000000   0.0000000   2.0951312  )
         3        Al     tau(   3) = (   0.2500000   0.4330127   2.0951312  )
         4        Al     tau(   4) = (   0.7500000   0.4330127   2.0951312  )
         5        Al     tau(   5) = (   0.2500000   0.1443376   2.5033795  )
         6        Al     tau(   6) = (   0.7500000   0.1443376   2.5033795  )
         7        Al     tau(   7) = (   0.0000000   0.5773503   2.5033795  )
         8        Al     tau(   8) = (   0.5000000   0.5773503   2.5033795  )
         9        Al     tau(   9) = (   0.0000000   0.2886751   2.9116278  )
        10        Al     tau(  10) = (   0.5000000   0.2886751   2.9116278  )
        11        Al     tau(  11) = (   0.2500000   0.7216878   2.9116278  )
        12        Al     tau(  12) = (   0.7500000   0.7216878   2.9116278  )
        13        Al     tau(  13) = (   0.0000000   0.0000000   3.3198761  )
        14        Al     tau(  14) = (   0.5000000   0.0000000   3.3198761  )
        15        Al     tau(  15) = (   0.2500000   0.4330127   3.3198761  )
        16        Al     tau(  16) = (   0.7500000   0.4330127   3.3198761  )
        17        H      tau(  17) = (   0.2500000   0.1443376   3.6079566  )

     number of k points=    16  Marzari-Vanderbilt smearing, width (Ry)=  0.0200
                       cart. coord. in units 2pi/alat
        k(    1) = (   0.0000000   0.0000000   0.0000000), wk =   0.0555556
        k(    2) = (   0.0000000   0.1924501   0.0000000), wk =   0.1111111
        k(    3) = (   0.0000000   0.3849002   0.0000000), wk =   0.1111111
        k(    4) = (   0.0000000  -0.5773503   0.0000000), wk =   0.0555556
        k(    5) = (   0.1666667   0.0000000   0.0000000), wk =   0.1111111
        k(    6) = (   0.1666667   0.1924501   0.0000000), wk =   0.2222222
        k(    7) = (   0.1666667   0.3849002   0.0000000), wk =   0.2222222
        k(    8) = (   0.1666667  -0.5773503   0.0000000), wk =   0.1111111
        k(    9) = (   0.3333333   0.0000000   0.0000000), wk =   0.1111111
        k(   10) = (   0.3333333   0.1924501   0.0000000), wk =   0.2222222
        k(   11) = (   0.3333333   0.3849002   0.0000000), wk =   0.2222222
        k(   12) = (   0.3333333  -0.5773503   0.0000000), wk =   0.1111111
        k(   13) = (  -0.5000000   0.0000000   0.0000000), wk =   0.0555556
        k(   14) = (  -0.5000000   0.1924501   0.0000000), wk =   0.1111111
        k(   15) = (  -0.5000000   0.3849002   0.0000000), wk =   0.1111111
        k(   16) = (  -0.5000000  -0.5773503   0.0000000), wk =   0.0555556

     Dense  grid:  1712349 G-vectors     FFT dimensions: (  90,  75, 500)

     Smooth grid:   605471 G-vectors     FFT dimensions: (  64,  54, 360)

     Estimated max dynamical RAM per process >       7.80 GB

     Initial potential from superposition of free atoms

     starting charge      48.9633, renormalised to      49.0000

     negative rho (up, down):  1.720E-04 0.000E+00
     Starting wfcs are   65 randomized atomic wfcs
     Checking if some PAW data can be deallocated... 

     total cpu time spent up to now is      115.7 secs

     per-process dynamical memory:  1611.9 Mb

     Self-consistent Calculation

     iteration #  1     ecut=    80.00 Ry     beta= 0.70
     Davidson diagonalization with overlap
     ethr =  1.00E-02,  avg # of iterations =  3.6

     total cpu time spent up to now is      300.6 secs

     total energy              =    -632.39491160 Ry
     estimated scf accuracy    <       0.76851161 Ry

     iteration #  2     ecut=    80.00 Ry     beta= 0.70
     Davidson diagonalization with overlap
     ethr =  1.57E-03,  avg # of iterations =  9.3

     total cpu time spent up to now is      597.1 secs

     total energy              =    -629.78966844 Ry
     estimated scf accuracy    <      41.69494713 Ry

     iteration #  3     ecut=    80.00 Ry     beta= 0.70
     Davidson diagonalization with overlap
