C  B  N  B  N  B  N  B  N
 1.0000000000000000
     4.9199999999999999    0.0000000000000000    0.0000000000000000
    -2.4600000000000000    4.2608449866194382    0.0000000000000000
     0.0000000000000000    0.0000000000000000   24.0000000000000000
 C   B   N   B   N   B   N   B   N
   8   1   1   1   1   1   1   1   1
Direct
  0.0000000000000000  0.0000000000000000  0.4302083333333333
  0.3333333333333333  0.1666666666666667  0.4302083333333333
  0.0000000000000000  0.5000000000000000  0.4302083333333333
  0.3333333333333333  0.6666666666666666  0.4302083333333333
  0.5000000000000000  0.0000000000000000  0.4302083333333333
  0.8333333333333333  0.1666666666666667  0.4302083333333333
  0.5000000000000000  0.5000000000000000  0.4302083333333333
  0.8333333333333333  0.6666666666666666  0.4302083333333333
  0.0000000000000000  0.0000000000000000  0.5697916666666667
  0.3333333333333333  0.1666666666666667  0.5697916666666667
  0.0000000000000000  0.5000000000000000  0.5697916666666667
  0.3333333333333333  0.6666666666666666  0.5697916666666667
  0.5000000000000000  0.0000000000000000  0.5697916666666667
  0.8333333333333333  0.1666666666666667  0.5697916666666667
  0.5000000000000000  0.5000000000000000  0.5697916666666667
  0.8333333333333333  0.6666666666666666  0.5697916666666667
