
     Program PWSCF v.7.5 starts on  4Aug2026 at 21:23: 3 

     This program is part of the open-source Quantum ESPRESSO suite
     for quantum simulation of materials; please cite
         "P. Giannozzi et al., J. Phys.:Condens. Matter 21 395502 (2009);
         "P. Giannozzi et al., J. Phys.:Condens. Matter 29 465901 (2017);
         "P. Giannozzi et al., J. Chem. Phys. 152 154105 (2020);
          URL http://www.quantum-espresso.org", 
     in publications or presentations arising from this work. More details at
     http://www.quantum-espresso.org/quote

     Parallel version (MPI & OpenMP), running on      32 processor cores
     Number of MPI processes:                 1
     Threads/MPI process:                    32

     MPI processes distributed on     1 nodes
     61952 MiB available memory on the printing compute node when the environment starts
 
     Reading input from dos-nscf.in

     Current dimensions of program PWSCF are:
     Max number of different atomic species (ntypx) = 10
     Max number of k-points (npk) =  40000
     Max angular momentum in pseudopotentials (lmaxx) =  4
     Message from routine input:
     WARNING: "startingwfc" set to atomic+random may spoil restart
     Message from routine setup:
     using ibrav=0 with symmetry is DISCOURAGED, use correct ibrav instead
 
     Subspace diagonalization in iterative solution of the eigenvalue problem:
     a serial algorithm will be used

 
     G-vector sticks info
     --------------------
     sticks:   dense  smooth     PW     G-vecs:    dense   smooth      PW
     Sum        1159     583    187                26229     9257    1639
 
     Using Slab Decomposition
 


     bravais-lattice index     =            0
     lattice parameter (alat)  =       7.2563  a.u.
     unit-cell volume          =     270.1669 (a.u.)^3
     number of atoms/cell      =            2
     number of atomic types    =            1
     number of electrons       =         8.00
     number of Kohn-Sham states=            8
     kinetic-energy cutoff     =      40.0000  Ry
     charge density cutoff     =     320.0000  Ry
     Exchange-correlation= PBE
                           (   1   4   3   4   0   0   0)

     celldm(1)=   7.256308  celldm(2)=   0.000000  celldm(3)=   0.000000
     celldm(4)=   0.000000  celldm(5)=   0.000000  celldm(6)=   0.000000

     crystal axes: (cart. coord. in units of alat)
               a(1) = (   0.000000   0.707107   0.707107 )  
               a(2) = (   0.707107   0.000000   0.707107 )  
               a(3) = (   0.707107   0.707107   0.000000 )  

     reciprocal axes: (cart. coord. in units 2 pi/alat)
               b(1) = ( -0.707107  0.707107  0.707107 )  
               b(2) = (  0.707107 -0.707107  0.707107 )  
               b(3) = (  0.707107  0.707107 -0.707107 )  


     PseudoPot. # 1 for Si read from file:
     ./pseudo/Si.pbe-n-rrkjus_psl.1.0.0.UPF
     MD5 check sum: 0b0bb1205258b0d07b9f9672cf965d36
     Pseudo is Ultrasoft + core correction, Zval =  4.0
     Generated using "atomic" code by A. Dal Corso  v.5.1
     Using radial grid of 1141 points,  6 beta functions with: 
                l(1) =   0
                l(2) =   0
                l(3) =   1
                l(4) =   1
                l(5) =   2
                l(6) =   2
     Q(r) pseudized with 0 coefficients 


     atomic species   valence    mass     pseudopotential
     Si                4.00    28.08550     Si( 1.00)

     48 Sym. Ops., with inversion, found (24 have fractional translation)



   Cartesian axes

     site n.     atom                  positions (alat units)
         1        Si     tau(   1) = (   0.0000000   0.0000000   0.0000000  )
         2        Si     tau(   2) = (   0.3535534   0.3535534   0.3535534  )

     number of k points=    72 (tetrahedron method)
                       cart. coord. in units 2pi/alat
        k(    1) = (   0.0000000   0.0000000   0.0000000), wk =   0.0011574
        k(    2) = (   0.0589256   0.0589256  -0.0589256), wk =   0.0092593
        k(    3) = (   0.1178511   0.1178511  -0.1178511), wk =   0.0092593
        k(    4) = (   0.1767767   0.1767767  -0.1767767), wk =   0.0092593
        k(    5) = (   0.2357023   0.2357023  -0.2357023), wk =   0.0092593
        k(    6) = (   0.2946278   0.2946278  -0.2946278), wk =   0.0092593
        k(    7) = (  -0.3535534  -0.3535534   0.3535534), wk =   0.0046296
        k(    8) = (   0.1178511   0.0000000   0.0000000), wk =   0.0069444
        k(    9) = (   0.1767767   0.0589256  -0.0589256), wk =   0.0277778
        k(   10) = (   0.2357023   0.1178511  -0.1178511), wk =   0.0277778
        k(   11) = (   0.2946278   0.1767767  -0.1767767), wk =   0.0277778
        k(   12) = (   0.3535534   0.2357023  -0.2357023), wk =   0.0277778
        k(   13) = (  -0.2946278  -0.4124790   0.4124790), wk =   0.0277778
        k(   14) = (  -0.2357023  -0.3535534   0.3535534), wk =   0.0277778
        k(   15) = (  -0.1767767  -0.2946278   0.2946278), wk =   0.0277778
        k(   16) = (  -0.1178511  -0.2357023   0.2357023), wk =   0.0277778
        k(   17) = (  -0.0589256  -0.1767767   0.1767767), wk =   0.0277778
        k(   18) = (  -0.0000000  -0.1178511   0.1178511), wk =   0.0138889
        k(   19) = (   0.2357023   0.0000000   0.0000000), wk =   0.0069444
        k(   20) = (   0.2946278   0.0589256  -0.0589256), wk =   0.0277778
        k(   21) = (   0.3535534   0.1178511  -0.1178511), wk =   0.0277778
        k(   22) = (   0.4124790   0.1767767  -0.1767767), wk =   0.0277778
        k(   23) = (  -0.2357023  -0.4714045   0.4714045), wk =   0.0277778
        k(   24) = (  -0.1767767  -0.4124790   0.4124790), wk =   0.0277778
        k(   25) = (  -0.1178511  -0.3535534   0.3535534), wk =   0.0277778
        k(   26) = (  -0.0589256  -0.2946278   0.2946278), wk =   0.0277778
        k(   27) = (  -0.0000000  -0.2357023   0.2357023), wk =   0.0138889
        k(   28) = (   0.3535534   0.0000000   0.0000000), wk =   0.0069444
        k(   29) = (   0.4124790   0.0589256  -0.0589256), wk =   0.0277778
        k(   30) = (   0.4714045   0.1178511  -0.1178511), wk =   0.0277778
        k(   31) = (  -0.1767767  -0.5303301   0.5303301), wk =   0.0277778
        k(   32) = (  -0.1178511  -0.4714045   0.4714045), wk =   0.0277778
        k(   33) = (  -0.0589256  -0.4124790   0.4124790), wk =   0.0277778
        k(   34) = (   0.0000000  -0.3535534   0.3535534), wk =   0.0138889
        k(   35) = (   0.4714045   0.0000000   0.0000000), wk =   0.0069444
        k(   36) = (   0.5303301   0.0589256  -0.0589256), wk =   0.0277778
        k(   37) = (  -0.1178511  -0.5892557   0.5892557), wk =   0.0277778
        k(   38) = (  -0.0589256  -0.5303301   0.5303301), wk =   0.0277778
        k(   39) = (  -0.0000000  -0.4714045   0.4714045), wk =   0.0138889
        k(   40) = (   0.5892557   0.0000000   0.0000000), wk =   0.0069444
        k(   41) = (  -0.0589256  -0.6481812   0.6481812), wk =   0.0277778
        k(   42) = (  -0.0000000  -0.5892557   0.5892557), wk =   0.0138889
        k(   43) = (  -0.7071068   0.0000000   0.0000000), wk =   0.0034722
        k(   44) = (   0.2357023   0.1178511  -0.0000000), wk =   0.0277778
        k(   45) = (   0.2946278   0.1767767  -0.0589256), wk =   0.0555556
        k(   46) = (   0.3535534   0.2357023  -0.1178511), wk =   0.0555556
        k(   47) = (  -0.2946278  -0.4124790   0.5303301), wk =   0.0555556
        k(   48) = (  -0.2357023  -0.3535534   0.4714045), wk =   0.0277778
        k(   49) = (   0.3535534   0.1178511   0.0000000), wk =   0.0277778
        k(   50) = (   0.4124790   0.1767767  -0.0589256), wk =   0.0555556
        k(   51) = (  -0.2357023  -0.4714045   0.5892557), wk =   0.0555556
        k(   52) = (  -0.1767767  -0.4124790   0.5303301), wk =   0.0555556
        k(   53) = (  -0.1178511  -0.3535534   0.4714045), wk =   0.0555556
        k(   54) = (  -0.0589256  -0.2946278   0.4124790), wk =   0.0555556
        k(   55) = (  -0.0000000  -0.2357023   0.3535534), wk =   0.0277778
        k(   56) = (   0.4714045   0.1178511   0.0000000), wk =   0.0277778
        k(   57) = (  -0.1767767  -0.5303301   0.6481812), wk =   0.0555556
        k(   58) = (  -0.1178511  -0.4714045   0.5892557), wk =   0.0555556
        k(   59) = (  -0.0589256  -0.4124790   0.5303301), wk =   0.0555556
        k(   60) = (   0.0000000  -0.3535534   0.4714045), wk =   0.0277778
        k(   61) = (  -0.1178511  -0.5892557   0.7071068), wk =   0.0277778
        k(   62) = (  -0.0589256  -0.5303301   0.6481812), wk =   0.0555556
        k(   63) = (  -0.0000000  -0.4714045   0.5892557), wk =   0.0277778
        k(   64) = (  -0.7071068   0.1178511   0.0000000), wk =   0.0138889
        k(   65) = (  -0.2357023  -0.4714045   0.7071068), wk =   0.0277778
        k(   66) = (  -0.1767767  -0.4124790   0.6481812), wk =   0.0555556
        k(   67) = (  -0.1178511  -0.3535534   0.5892557), wk =   0.0277778
        k(   68) = (  -0.1178511  -0.4714045   0.7071068), wk =   0.0277778
        k(   69) = (  -0.0589256  -0.4124790   0.6481812), wk =   0.0555556
        k(   70) = (   0.0000000  -0.3535534   0.5892557), wk =   0.0277778
        k(   71) = (  -0.7071068   0.2357023   0.0000000), wk =   0.0138889
        k(   72) = (  -0.7071068   0.3535534   0.0000000), wk =   0.0069444

     Dense  grid:    26229 G-vectors     FFT dimensions: (  48,  48,  48)

     Smooth grid:     9257 G-vectors     FFT dimensions: (  32,  32,  32)

     Estimated max dynamical RAM per process >      88.18 MB

     Atomic positions and unit cell read from directory:
     ./out/si_cod9013102.save/
 

     The potential is recalculated from file :
     ./out/si_cod9013102.save/charge-density

     Starting wfcs are    8 randomized atomic wfcs

     Band Structure Calculation
     Davidson diagonalization with overlap

     ethr =  1.25E-12,  avg # of iterations = 44.5

     total cpu time spent up to now is       11.4 secs

     End of band structure calculation

          k = 0.0000 0.0000 0.0000 (  1139 PWs)   bands (ev):

    -5.7578   6.2054   6.2054   6.2054   8.7679   8.7679   8.7679   9.5674

          k = 0.0589 0.0589-0.0589 (  1185 PWs)   bands (ev):

    -5.6668   5.3460   6.0615   6.0615   8.8127   8.9796   8.9796  10.2311

          k = 0.1179 0.1179-0.1179 (  1167 PWs)   bands (ev):

    -5.3967   3.8232   5.7545   5.7545   8.5561   9.4160   9.4160  11.6572

          k = 0.1768 0.1768-0.1768 (  1164 PWs)   bands (ev):

    -4.9582   2.2766   5.4448   5.4448   8.2340   9.7118   9.7118  13.1236

          k = 0.2357 0.2357-0.2357 (  1149 PWs)   bands (ev):

    -4.3812   0.8691   5.2039   5.2039   7.9683   9.7135   9.7135  14.0773

          k = 0.2946 0.2946-0.2946 (  1155 PWs)   bands (ev):

    -3.7607  -0.2610   5.0554   5.0554   7.8001   9.6014   9.6014  14.0227

          k =-0.3536-0.3536 0.3536 (  1158 PWs)   bands (ev):

    -3.4266  -0.7666   5.0055   5.0055   7.7429   9.5470   9.5470  13.9406

          k = 0.1179 0.0000 0.0000 (  1179 PWs)   bands (ev):

    -5.6364   5.5112   5.7749   5.7749   8.4942   9.3477   9.3477  10.2074

          k = 0.1768 0.0589-0.0589 (  1164 PWs)   bands (ev):

    -5.4254   4.2768   5.4106   5.6016   8.5170   9.4306   9.8866  11.1063

          k = 0.2357 0.1179-0.1179 (  1155 PWs)   bands (ev):

    -5.0415   2.7743   5.0972   5.2780   8.6441   9.4202  10.2726  11.6093

          k = 0.2946 0.1768-0.1768 (  1151 PWs)   bands (ev):

    -4.5056   1.3374   4.8872   4.9245   8.5005   9.5037  10.2963  12.1798

          k = 0.3536 0.2357-0.2357 (  1153 PWs)   bands (ev):

    -3.8800   0.1067   4.6280   4.7973   8.3348   9.4715  10.1012  13.2286

          k =-0.2946-0.4125 0.4125 (  1160 PWs)   bands (ev):

    -3.3892  -0.6634   4.4229   4.8282   8.2546   9.4734   9.9013  14.1314

          k =-0.2357-0.3536 0.3536 (  1156 PWs)   bands (ev):

    -3.5100  -0.4856   4.3274   4.9714   8.2816   9.5899   9.7902  14.2399

          k =-0.1768-0.2946 0.2946 (  1147 PWs)   bands (ev):

    -4.0919   0.4870   4.3546   5.2112   8.4146   9.7578   9.7993  13.6957

          k =-0.1179-0.2357 0.2357 (  1151 PWs)   bands (ev):

    -4.6998   1.8019   4.5143   5.5216   8.6404   9.6762   9.9516  12.7270

          k =-0.0589-0.1768 0.1768 (  1160 PWs)   bands (ev):

    -5.1886   3.2612   4.8185   5.8514   8.9227   9.3756   9.7381  11.9470

          k =-0.0000-0.1179 0.1179 (  1163 PWs)   bands (ev):

    -5.5159   4.6150   5.3411   6.0872   9.0176   9.1371   9.1746  11.0293

          k = 0.2357 0.0000 0.0000 (  1162 PWs)   bands (ev):

    -5.2738   4.1662   5.0114   5.0114   7.9106  10.5074  10.5515  10.5515

          k = 0.2946 0.0589-0.0589 (  1158 PWs)   bands (ev):

    -4.9466   3.0785   4.6641   4.6767   7.9307  10.1046  10.8898  11.1148

          k = 0.3536 0.1179-0.1179 (  1151 PWs)   bands (ev):

    -4.4585   1.7673   4.2115   4.4580   8.1716  10.2732  10.7326  11.2826

          k = 0.4125 0.1768-0.1768 (  1152 PWs)   bands (ev):

    -3.8507   0.5321   3.7720   4.3739   8.2173  10.4653  11.1025  11.2605

          k =-0.2357-0.4714 0.4714 (  1153 PWs)   bands (ev):

    -3.2672  -0.4024   3.4273   4.4277   8.2488  10.3232  10.8297  12.6302

          k =-0.1768-0.4125 0.4125 (  1157 PWs)   bands (ev):

    -3.1528  -0.5623   3.2132   4.6117   8.3935  10.2761  10.6031  14.1861

          k =-0.1179-0.3536 0.3536 (  1156 PWs)   bands (ev):

    -3.6522   0.1969   3.1566   4.9069   8.6584  10.3308  10.4366  13.5012

          k =-0.0589-0.2946 0.2946 (  1156 PWs)   bands (ev):

    -4.2765   1.3442   3.3011   5.2753   8.9898  10.2076  10.3862  12.3408

          k =-0.0000-0.2357 0.2357 (  1147 PWs)   bands (ev):

    -4.8085   2.4865   3.7917   5.6398   9.2456   9.7637  10.0558  11.8730

          k = 0.3536 0.0000 0.0000 (  1174 PWs)   bands (ev):

    -4.6760   2.6868   4.3141   4.3141   7.3366   9.3417  11.9639  11.9639

          k = 0.4125 0.0589-0.0589 (  1154 PWs)   bands (ev):

    -4.2394   1.7763   3.8487   4.0675   7.4206   8.9877  12.2527  12.4463

          k = 0.4714 0.1179-0.1179 (  1153 PWs)   bands (ev):

    -3.6641   0.7470   3.2165   3.9602   7.6391   9.4593  12.1192  12.4046

          k =-0.1768-0.5303 0.5303 (  1156 PWs)   bands (ev):

    -3.0400  -0.1795   2.6698   3.9989   7.7274  10.6575  11.9515  12.1274

          k =-0.1179-0.4714 0.4714 (  1151 PWs)   bands (ev):

    -2.7161  -0.5942   2.3067   4.1789   7.9068  11.6662  11.8301  12.3751

          k =-0.0589-0.4125 0.4125 (  1152 PWs)   bands (ev):

    -3.0921  -0.1001   2.1872   4.4839   8.2311  11.5291  11.6486  13.3905

          k = 0.0000-0.3536 0.3536 (  1159 PWs)   bands (ev):

    -3.7142   0.7231   2.4513   4.8764   8.6567  10.9953  11.3428  12.3529

          k = 0.4714 0.0000 0.0000 (  1150 PWs)   bands (ev):

    -3.8538   1.1926   3.7862   3.7862   6.9339   8.2004  13.4708  13.4708

          k = 0.5303 0.0589-0.0589 (  1152 PWs)   bands (ev):

    -3.3191   0.4065   3.3002   3.6434   7.0964   8.0700  13.7957  13.8409

          k =-0.1179-0.5893 0.5893 (  1149 PWs)   bands (ev):

    -2.6899  -0.3622   2.5720   3.6496   7.2706   8.9254  13.6590  13.6883

          k =-0.0589-0.5303 0.5303 (  1149 PWs)   bands (ev):

    -2.2209  -0.8535   1.9931   3.8034   7.4476  10.3727  13.3069  13.5211

          k =-0.0000-0.4714 0.4714 (  1141 PWs)   bands (ev):

    -2.4938  -0.5673   1.7911   4.0921   7.7746  12.0121  12.6830  13.2849

          k = 0.5893 0.0000 0.0000 (  1162 PWs)   bands (ev):

    -2.8244  -0.2588   3.4609   3.4609   6.7789   7.3839  15.0330  15.0330

          k =-0.0589-0.6482 0.6482 (  1150 PWs)   bands (ev):

    -2.2107  -0.9469   3.0292   3.4273   6.9803   7.5497  15.2786  15.3790

          k =-0.0000-0.5893 0.5893 (  1152 PWs)   bands (ev):

    -1.7548  -1.3510   2.3583   3.5444   7.1403   8.7511  14.7300  15.2610

          k =-0.7071 0.0000 0.0000 (  1162 PWs)   bands (ev):

    -1.6137  -1.6137   3.3514   3.3514   6.9174   6.9174  16.3094  16.3094

          k = 0.2357 0.1179-0.0000 (  1157 PWs)   bands (ev):

    -5.1567   3.4771   4.5703   5.4985   8.5440   9.7527  10.3629  11.1184

          k = 0.2946 0.1768-0.0589 (  1148 PWs)   bands (ev):

    -4.7203   2.2352   4.0380   5.2231   8.8256   9.7206  10.7704  11.1055

          k = 0.3536 0.2357-0.1179 (  1151 PWs)   bands (ev):

    -4.1451   0.9329   3.7686   4.8953   8.8671   9.5982  10.8282  11.7552

          k =-0.2946-0.4125 0.5303 (  1151 PWs)   bands (ev):

    -3.5233  -0.1574   3.6414   4.6485   8.8113   9.4092  10.7469  12.9710

          k =-0.2357-0.3536 0.4714 (  1152 PWs)   bands (ev):

    -3.1849  -0.6558   3.6059   4.5567   8.7899   9.3241  10.7016  14.2823

          k = 0.3536 0.1179 0.0000 (  1156 PWs)   bands (ev):

    -4.5655   2.2836   3.8744   4.5774   7.9969   9.7370  11.0258  11.8441

          k = 0.4125 0.1768-0.0589 (  1152 PWs)   bands (ev):

    -4.0329   1.2327   3.3371   4.2886   8.3302   9.9565  10.7692  12.2304

          k =-0.2357-0.4714 0.5893 (  1153 PWs)   bands (ev):

    -3.4074   0.1777   2.9806   4.0776   8.4517  10.4186  11.0191  12.2123

          k =-0.1768-0.4125 0.5303 (  1152 PWs)   bands (ev):

    -2.9104  -0.5292   2.7349   4.0595   8.5798  10.1446  12.1045  12.4883

          k =-0.1179-0.3536 0.4714 (  1152 PWs)   bands (ev):

    -3.0462  -0.3419   2.6164   4.2323   8.8293   9.9552  12.0209  12.8749

          k =-0.0589-0.2946 0.4125 (  1154 PWs)   bands (ev):

    -3.6365   0.5357   2.6903   4.5496   9.1882   9.8132  11.5007  11.9761

          k =-0.0000-0.2357 0.3536 (  1157 PWs)   bands (ev):

    -4.2392   1.5155   3.1054   4.9318   9.4196   9.5667  10.8825  11.5450

          k = 0.4714 0.1179 0.0000 (  1154 PWs)   bands (ev):

    -3.7551   1.0172   3.3645   3.7923   7.5995   8.6874  12.2710  13.4196

          k =-0.1768-0.5303 0.6482 (  1156 PWs)   bands (ev):

    -3.1494   0.1815   2.7765   3.5752   7.9342   9.2173  11.9705  13.7894

          k =-0.1179-0.4714 0.5893 (  1154 PWs)   bands (ev):

    -2.5599  -0.5336   2.2553   3.5832   8.0882  10.5117  11.6754  13.7223

          k =-0.0589-0.4125 0.5303 (  1157 PWs)   bands (ev):

    -2.4889  -0.6047   1.9665   3.7819   8.3450  11.2666  12.2616  12.9429

          k = 0.0000-0.3536 0.4714 (  1161 PWs)   bands (ev):

    -3.0267  -0.0140   2.0532   4.1273   8.7369  10.8527  11.7136  13.0492

          k =-0.1179-0.5893 0.7071 (  1159 PWs)   bands (ev):

    -2.7469  -0.2953   3.0806   3.2770   7.4290   7.9420  13.6483  15.0283

          k =-0.0589-0.5303 0.6482 (  1153 PWs)   bands (ev):

    -2.1178  -0.9384   2.4517   3.2332   7.7214   8.8488  13.3283  14.8107

          k =-0.0000-0.4714 0.5893 (  1151 PWs)   bands (ev):

    -1.9630  -1.0520   1.9535   3.4304   7.9589  10.3795  12.8677  13.2604

          k =-0.7071 0.1179 0.0000 (  1148 PWs)   bands (ev):

    -1.5756  -1.5756   3.0451   3.0451   7.5314   7.5314  15.1195  15.1195

          k =-0.2357-0.4714 0.7071 (  1151 PWs)   bands (ev):

    -3.4686   0.5594   2.6345   3.9093   9.0606   9.9243  10.4418  13.2740

          k =-0.1768-0.4125 0.6482 (  1152 PWs)   bands (ev):

    -2.8444  -0.2108   2.2874   3.5721   9.4354   9.9749  10.9634  13.7031

          k =-0.1179-0.3536 0.5893 (  1152 PWs)   bands (ev):

    -2.4838  -0.6402   2.1944   3.4425   9.5645   9.7649  12.3108  12.7271

          k =-0.1179-0.4714 0.7071 (  1155 PWs)   bands (ev):

    -2.5330  -0.4395   2.4356   3.0544   8.8902   9.2944  11.5917  14.5222

          k =-0.0589-0.4125 0.6482 (  1158 PWs)   bands (ev):

    -2.0096  -0.9462   2.1200   2.9001   9.2318  10.4960  11.3172  12.7044

          k = 0.0000-0.3536 0.5893 (  1153 PWs)   bands (ev):

    -2.2412  -0.7163   1.9951   3.1252   9.5336  10.6841  11.2079  12.4523

          k =-0.7071 0.2357 0.0000 (  1154 PWs)   bands (ev):

    -1.4938  -1.4938   2.5592   2.5592   8.9570   8.9570  12.9721  12.9721

          k =-0.7071 0.3536 0.0000 (  1144 PWs)   bands (ev):

    -1.4498  -1.4498   2.3513   2.3513  10.4795  10.4795  11.2092  11.2092

     the Fermi energy is     6.6550 ev
     (compare with:     6.2054 eV, computed in scf)

     Writing all to output data dir ./out/si_cod9013102.save/ :
     XML data file, pseudopotentials, collected wavefunctions
 
     init_run     :      7.48s CPU      0.28s WALL (       1 calls)
     electrons    :    328.49s CPU     11.02s WALL (       1 calls)

     Called by init_run:
     wfcinit      :      0.00s CPU      0.00s WALL (       1 calls)
     potinit      :      0.57s CPU      0.02s WALL (       1 calls)
     hinit0       :      4.50s CPU      0.16s WALL (       1 calls)

     Called by electrons:
     c_bands      :    328.14s CPU     11.01s WALL (       1 calls)
     v_of_rho     :      0.47s CPU      0.02s WALL (       1 calls)
     newd         :      2.39s CPU      0.08s WALL (       1 calls)

     Called by c_bands:
     init_us_2    :      0.32s CPU      0.01s WALL (      72 calls)
     cegterg      :    313.19s CPU     10.51s WALL (     190 calls)

     Called by *egterg:
     cdiaghg      :      5.28s CPU      0.18s WALL (    3277 calls)
     h_psi        :    275.56s CPU      9.22s WALL (    3467 calls)
     s_psi        :      7.48s CPU      0.23s WALL (    3467 calls)
     g_psi        :      1.36s CPU      0.05s WALL (    3205 calls)

     Called by h_psi:
     h_psi:calbec :      6.58s CPU      0.22s WALL (    3467 calls)
     vloc_psi     :    261.06s CPU      8.72s WALL (    3467 calls)
                                        0.00s GPU  (    3467 calls)
     add_vuspsi   :      6.11s CPU      0.21s WALL (    3467 calls)

     General routines
     calbec       :      6.13s CPU      0.21s WALL (    3467 calls)
     fft          :      0.30s CPU      0.01s WALL (      13 calls)
     ffts         :      0.01s CPU      0.00s WALL (       1 calls)
     fftw         :    237.68s CPU      7.88s WALL (   35938 calls)
     interpolate  :      0.04s CPU      0.00s WALL (       1 calls)
     davcio       :      0.20s CPU      0.01s WALL (     144 calls)
 
     Parallel routines
 
     PWSCF        :   5m36.84s CPU     11.44s WALL

 
   This run was terminated on:  21:23:14   4Aug2026            

=------------------------------------------------------------------------------=
   JOB DONE.
=------------------------------------------------------------------------------=
