
     Program PWSCF v.7.5 starts on  4Aug2026 at 21:37:58

     This program is part of the open-source Quantum ESPRESSO suite
     for quantum simulation of materials; please cite
         "P. Giannozzi et al., J. Phys.:Condens. Matter 21 395502 (2009);
         "P. Giannozzi et al., J. Phys.:Condens. Matter 29 465901 (2017);
         "P. Giannozzi et al., J. Chem. Phys. 152 154105 (2020);
          URL http://www.quantum-espresso.org",
     in publications or presentations arising from this work. More details at
     http://www.quantum-espresso.org/quote

     Parallel version (MPI & OpenMP), running on       4 processor cores
     Number of MPI processes:                 1
     Threads/MPI process:                     4

     MPI processes distributed on     1 nodes
     61797 MiB available memory on the printing compute node when the environment starts

     Reading input from si_e40_k6.in

     Current dimensions of program PWSCF are:
     Max number of different atomic species (ntypx) = 10
     Max number of k-points (npk) =  40000
     Max angular momentum in pseudopotentials (lmaxx) =  4
     Message from routine setup:
     using ibrav=0 with symmetry is DISCOURAGED, use correct ibrav instead

     Subspace diagonalization in iterative solution of the eigenvalue problem:
     a serial algorithm will be used


     G-vector sticks info
     --------------------
     sticks:   dense  smooth     PW     G-vecs:    dense   smooth      PW
     Sum        1159     583    187                26229     9257    1639

     Using Slab Decomposition



     bravais-lattice index     =            0
     lattice parameter (alat)  =       7.2563  a.u.
     unit-cell volume          =     270.1669 (a.u.)^3
     number of atoms/cell      =            2
     number of atomic types    =            1
     number of electrons       =         8.00
     number of Kohn-Sham states=            4
     kinetic-energy cutoff     =      40.0000  Ry
     charge density cutoff     =     320.0000  Ry
     scf convergence threshold =      1.0E-10
     mixing beta               =       0.7000
     number of iterations used =            8  plain     mixing
     Exchange-correlation= PBE
                           (   1   4   3   4   0   0   0)

     celldm(1)=   7.256308  celldm(2)=   0.000000  celldm(3)=   0.000000
     celldm(4)=   0.000000  celldm(5)=   0.000000  celldm(6)=   0.000000

     crystal axes: (cart. coord. in units of alat)
               a(1) = (   0.000000   0.707107   0.707107 )
               a(2) = (   0.707107   0.000000   0.707107 )
               a(3) = (   0.707107   0.707107   0.000000 )

     reciprocal axes: (cart. coord. in units 2 pi/alat)
               b(1) = ( -0.707107  0.707107  0.707107 )
               b(2) = (  0.707107 -0.707107  0.707107 )
               b(3) = (  0.707107  0.707107 -0.707107 )


     PseudoPot. # 1 for Si read from file:
     ./pseudo/Si.pbe-n-rrkjus_psl.1.0.0.UPF
     MD5 check sum: 0b0bb1205258b0d07b9f9672cf965d36
     Pseudo is Ultrasoft + core correction, Zval =  4.0
     Generated using "atomic" code by A. Dal Corso  v.5.1
     Using radial grid of 1141 points,  6 beta functions with:
                l(1) =   0
                l(2) =   0
                l(3) =   1
                l(4) =   1
                l(5) =   2
                l(6) =   2
     Q(r) pseudized with 0 coefficients


     atomic species   valence    mass     pseudopotential
     Si                4.00    28.08550     Si( 1.00)

     48 Sym. Ops., with inversion, found (24 have fractional translation)



   Cartesian axes

     site n.     atom                  positions (alat units)
         1        Si     tau(   1) = (   0.0000000   0.0000000   0.0000000  )
         2        Si     tau(   2) = (   0.3535534   0.3535534   0.3535534  )

     number of k points=    16
                       cart. coord. in units 2pi/alat
        k(    1) = (   0.0000000   0.0000000   0.0000000), wk =   0.0092593
        k(    2) = (   0.1178511   0.1178511  -0.1178511), wk =   0.0740741
        k(    3) = (   0.2357023   0.2357023  -0.2357023), wk =   0.0740741
        k(    4) = (  -0.3535534  -0.3535534   0.3535534), wk =   0.0370370
        k(    5) = (   0.2357023   0.0000000   0.0000000), wk =   0.0555556
        k(    6) = (   0.3535534   0.1178511  -0.1178511), wk =   0.2222222
        k(    7) = (  -0.2357023  -0.4714045   0.4714045), wk =   0.2222222
        k(    8) = (  -0.1178511  -0.3535534   0.3535534), wk =   0.2222222
        k(    9) = (  -0.0000000  -0.2357023   0.2357023), wk =   0.1111111
        k(   10) = (   0.4714045   0.0000000   0.0000000), wk =   0.0555556
        k(   11) = (  -0.1178511  -0.5892557   0.5892557), wk =   0.2222222
        k(   12) = (  -0.0000000  -0.4714045   0.4714045), wk =   0.1111111
        k(   13) = (  -0.7071068   0.0000000   0.0000000), wk =   0.0277778
        k(   14) = (  -0.2357023  -0.4714045   0.7071068), wk =   0.2222222
        k(   15) = (  -0.1178511  -0.3535534   0.5892557), wk =   0.2222222
        k(   16) = (  -0.7071068   0.2357023   0.0000000), wk =   0.1111111

     Dense  grid:    26229 G-vectors     FFT dimensions: (  48,  48,  48)

     Smooth grid:     9257 G-vectors     FFT dimensions: (  32,  32,  32)

     Estimated max dynamical RAM per process >      96.88 MB

     Initial potential from superposition of free atoms

     starting charge       7.9989, renormalised to       8.0000
     Starting wfcs are    8 randomized atomic wfcs

     total cpu time spent up to now is        0.2 secs

     Self-consistent Calculation

     iteration #  1     ecut=    40.00 Ry     beta= 0.70
     Davidson diagonalization with overlap
     ethr =  1.00E-02,  avg # of iterations =  2.0

     Threshold (ethr) on eigenvalues was too large:
     Diagonalizing with lowered threshold

     Davidson diagonalization with overlap
     ethr =  6.31E-04,  avg # of iterations =  1.5

     total cpu time spent up to now is        0.5 secs

     total energy              =     -22.83535568 Ry
     estimated scf accuracy    <       0.05484071 Ry

     iteration #  2     ecut=    40.00 Ry     beta= 0.70
     Davidson diagonalization with overlap
     ethr =  6.86E-04,  avg # of iterations =  1.0

     total cpu time spent up to now is        0.7 secs

     total energy              =     -22.83718095 Ry
     estimated scf accuracy    <       0.00287432 Ry

     iteration #  3     ecut=    40.00 Ry     beta= 0.70
     Davidson diagonalization with overlap
     ethr =  3.59E-05,  avg # of iterations =  2.6

     total cpu time spent up to now is        0.9 secs

     total energy              =     -22.83788696 Ry
     estimated scf accuracy    <       0.00009522 Ry

     iteration #  4     ecut=    40.00 Ry     beta= 0.70
     Davidson diagonalization with overlap
     ethr =  1.19E-06,  avg # of iterations =  3.8

     total cpu time spent up to now is        1.1 secs

     total energy              =     -22.83795879 Ry
     estimated scf accuracy    <       0.00000649 Ry

     iteration #  5     ecut=    40.00 Ry     beta= 0.70
     Davidson diagonalization with overlap
     ethr =  8.11E-08,  avg # of iterations =  3.9

     total cpu time spent up to now is        1.3 secs

     total energy              =     -22.83796326 Ry
     estimated scf accuracy    <       0.00000043 Ry

     iteration #  6     ecut=    40.00 Ry     beta= 0.70
     Davidson diagonalization with overlap
     ethr =  5.41E-09,  avg # of iterations =  4.3

     total cpu time spent up to now is        1.5 secs

     total energy              =     -22.83796348 Ry
     estimated scf accuracy    <       0.00000013 Ry

     iteration #  7     ecut=    40.00 Ry     beta= 0.70
     Davidson diagonalization with overlap
     ethr =  1.59E-09,  avg # of iterations =  2.7

     total cpu time spent up to now is        1.7 secs

     total energy              =     -22.83796350 Ry
     estimated scf accuracy    <          5.4E-09 Ry

     iteration #  8     ecut=    40.00 Ry     beta= 0.70
     Davidson diagonalization with overlap
     ethr =  6.73E-11,  avg # of iterations =  4.3

     total cpu time spent up to now is        1.9 secs

     total energy              =     -22.83796351 Ry
     estimated scf accuracy    <          2.1E-09 Ry

     iteration #  9     ecut=    40.00 Ry     beta= 0.70
     Davidson diagonalization with overlap
     ethr =  2.63E-11,  avg # of iterations =  1.5

     total cpu time spent up to now is        2.1 secs

     total energy              =     -22.83796351 Ry
     estimated scf accuracy    <          2.1E-10 Ry

     iteration # 10     ecut=    40.00 Ry     beta= 0.70
     Davidson diagonalization with overlap
     ethr =  2.60E-12,  avg # of iterations =  3.6

     total cpu time spent up to now is        2.3 secs

     End of self-consistent calculation

          k = 0.0000 0.0000 0.0000 (  1139 PWs)   bands (ev):

    -5.7526   6.2119   6.2119   6.2119

          k = 0.1179 0.1179-0.1179 (  1167 PWs)   bands (ev):

    -5.3914   3.8289   5.7606   5.7606

          k = 0.2357 0.2357-0.2357 (  1149 PWs)   bands (ev):

    -4.3758   0.8744   5.2098   5.2098

          k =-0.3536-0.3536 0.3536 (  1158 PWs)   bands (ev):

    -3.4209  -0.7617   5.0114   5.0114

          k = 0.2357 0.0000 0.0000 (  1162 PWs)   bands (ev):

    -5.2685   4.1727   5.0169   5.0169

          k = 0.3536 0.1179-0.1179 (  1151 PWs)   bands (ev):

    -4.4532   1.7730   4.2169   4.4633

          k =-0.2357-0.4714 0.4714 (  1153 PWs)   bands (ev):

    -3.2616  -0.3972   3.4325   4.4331

          k =-0.1179-0.3536 0.3536 (  1156 PWs)   bands (ev):

    -3.6466   0.2023   3.1616   4.9126

          k =-0.0000-0.2357 0.2357 (  1147 PWs)   bands (ev):

    -4.8032   2.4924   3.7967   5.6459

          k = 0.4714 0.0000 0.0000 (  1150 PWs)   bands (ev):

    -3.8484   1.1987   3.7913   3.7913

          k =-0.1179-0.5893 0.5893 (  1149 PWs)   bands (ev):

    -2.6843  -0.3563   2.5766   3.6547

          k =-0.0000-0.4714 0.4714 (  1141 PWs)   bands (ev):

    -2.4881  -0.5615   1.7954   4.0974

          k =-0.7071 0.0000 0.0000 (  1162 PWs)   bands (ev):

    -1.6080  -1.6080   3.3564   3.3564

          k =-0.2357-0.4714 0.7071 (  1151 PWs)   bands (ev):

    -3.4631   0.5654   2.6391   3.9144

          k =-0.1179-0.3536 0.5893 (  1152 PWs)   bands (ev):

    -2.4781  -0.6346   2.1990   3.4474

          k =-0.7071 0.2357 0.0000 (  1154 PWs)   bands (ev):

    -1.4880  -1.4880   2.5637   2.5637

     highest occupied level (ev):     6.2119

!    total energy              =     -22.83796351 Ry
     estimated scf accuracy    <          2.4E-12 Ry

     The total energy is the sum of the following terms:
     one-electron contribution =       5.16614514 Ry
     hartree contribution      =       1.10482540 Ry
     xc contribution           =     -12.31122771 Ry
     ewald contribution        =     -16.79770633 Ry

     convergence has been achieved in  10 iterations

     Writing all to output data dir ./out/si_e40_k6/si_e40_k6.save/ :
     XML data file, charge density, pseudopotentials, collected wavefunctions

     init_run     :      0.74s CPU      0.21s WALL (       1 calls)
     electrons    :      7.24s CPU      2.04s WALL (       1 calls)

     Called by init_run:
     wfcinit      :      0.09s CPU      0.02s WALL (       1 calls)
     potinit      :      0.07s CPU      0.02s WALL (       1 calls)
     hinit0       :      0.36s CPU      0.10s WALL (       1 calls)

     Called by electrons:
     c_bands      :      2.64s CPU      0.69s WALL (      11 calls)
     sum_band     :      2.12s CPU      0.64s WALL (      11 calls)
     v_of_rho     :      0.37s CPU      0.10s WALL (      11 calls)
     newd         :      2.29s CPU      0.68s WALL (      11 calls)
     mix_rho      :      0.04s CPU      0.01s WALL (      11 calls)

     Called by c_bands:
     init_us_2    :      0.15s CPU      0.04s WALL (     368 calls)
     cegterg      :      1.32s CPU      0.34s WALL (     176 calls)

     Called by *egterg:
     cdiaghg      :      0.05s CPU      0.01s WALL (     660 calls)
     h_psi        :      1.01s CPU      0.28s WALL (     692 calls)
     s_psi        :      0.04s CPU      0.02s WALL (     692 calls)
     g_psi        :      0.01s CPU      0.00s WALL (     500 calls)

     Called by h_psi:
     h_psi:calbec :      0.08s CPU      0.02s WALL (     692 calls)
     vloc_psi     :      0.88s CPU      0.24s WALL (     692 calls)
                                        0.00s GPU  (     692 calls)
     add_vuspsi   :      0.05s CPU      0.02s WALL (     692 calls)

     General routines
     calbec       :      0.08s CPU      0.02s WALL (     868 calls)
     fft          :      0.02s CPU      0.02s WALL (     142 calls)
     ffts         :      0.00s CPU      0.00s WALL (      22 calls)
     fftw         :      0.24s CPU      0.20s WALL (    5228 calls)
     interpolate  :      0.01s CPU      0.00s WALL (      11 calls)

     Parallel routines

     PWSCF        :      8.04s CPU      2.29s WALL


   This run was terminated on:  21:38: 0   4Aug2026

=------------------------------------------------------------------------------=
   JOB DONE.
=------------------------------------------------------------------------------=
