
     Program PWSCF v.7.5 starts on  4Aug2026 at 21:38:16

     This program is part of the open-source Quantum ESPRESSO suite
     for quantum simulation of materials; please cite
         "P. Giannozzi et al., J. Phys.:Condens. Matter 21 395502 (2009);
         "P. Giannozzi et al., J. Phys.:Condens. Matter 29 465901 (2017);
         "P. Giannozzi et al., J. Chem. Phys. 152 154105 (2020);
          URL http://www.quantum-espresso.org",
     in publications or presentations arising from this work. More details at
     http://www.quantum-espresso.org/quote

     Parallel version (MPI & OpenMP), running on       4 processor cores
     Number of MPI processes:                 1
     Threads/MPI process:                     4

     MPI processes distributed on     1 nodes
     61548 MiB available memory on the printing compute node when the environment starts

     Reading input from si_e50_k10.in

     Current dimensions of program PWSCF are:
     Max number of different atomic species (ntypx) = 10
     Max number of k-points (npk) =  40000
     Max angular momentum in pseudopotentials (lmaxx) =  4
     Message from routine setup:
     using ibrav=0 with symmetry is DISCOURAGED, use correct ibrav instead

     Subspace diagonalization in iterative solution of the eigenvalue problem:
     a serial algorithm will be used


     G-vector sticks info
     --------------------
     sticks:   dense  smooth     PW     G-vecs:    dense   smooth      PW
     Sum        1453     733    223                36325    12939    2229

     Using Slab Decomposition



     bravais-lattice index     =            0
     lattice parameter (alat)  =       7.2563  a.u.
     unit-cell volume          =     270.1669 (a.u.)^3
     number of atoms/cell      =            2
     number of atomic types    =            1
     number of electrons       =         8.00
     number of Kohn-Sham states=            4
     kinetic-energy cutoff     =      50.0000  Ry
     charge density cutoff     =     400.0000  Ry
     scf convergence threshold =      1.0E-10
     mixing beta               =       0.7000
     number of iterations used =            8  plain     mixing
     Exchange-correlation= PBE
                           (   1   4   3   4   0   0   0)

     celldm(1)=   7.256308  celldm(2)=   0.000000  celldm(3)=   0.000000
     celldm(4)=   0.000000  celldm(5)=   0.000000  celldm(6)=   0.000000

     crystal axes: (cart. coord. in units of alat)
               a(1) = (   0.000000   0.707107   0.707107 )
               a(2) = (   0.707107   0.000000   0.707107 )
               a(3) = (   0.707107   0.707107   0.000000 )

     reciprocal axes: (cart. coord. in units 2 pi/alat)
               b(1) = ( -0.707107  0.707107  0.707107 )
               b(2) = (  0.707107 -0.707107  0.707107 )
               b(3) = (  0.707107  0.707107 -0.707107 )


     PseudoPot. # 1 for Si read from file:
     ./pseudo/Si.pbe-n-rrkjus_psl.1.0.0.UPF
     MD5 check sum: 0b0bb1205258b0d07b9f9672cf965d36
     Pseudo is Ultrasoft + core correction, Zval =  4.0
     Generated using "atomic" code by A. Dal Corso  v.5.1
     Using radial grid of 1141 points,  6 beta functions with:
                l(1) =   0
                l(2) =   0
                l(3) =   1
                l(4) =   1
                l(5) =   2
                l(6) =   2
     Q(r) pseudized with 0 coefficients


     atomic species   valence    mass     pseudopotential
     Si                4.00    28.08550     Si( 1.00)

     48 Sym. Ops., with inversion, found (24 have fractional translation)



   Cartesian axes

     site n.     atom                  positions (alat units)
         1        Si     tau(   1) = (   0.0000000   0.0000000   0.0000000  )
         2        Si     tau(   2) = (   0.3535534   0.3535534   0.3535534  )

     number of k points=    47
                       cart. coord. in units 2pi/alat
        k(    1) = (   0.0000000   0.0000000   0.0000000), wk =   0.0020000
        k(    2) = (   0.0707107   0.0707107  -0.0707107), wk =   0.0160000
        k(    3) = (   0.1414214   0.1414214  -0.1414214), wk =   0.0160000
        k(    4) = (   0.2121320   0.2121320  -0.2121320), wk =   0.0160000
        k(    5) = (   0.2828427   0.2828427  -0.2828427), wk =   0.0160000
        k(    6) = (  -0.3535534  -0.3535534   0.3535534), wk =   0.0080000
        k(    7) = (   0.1414214   0.0000000   0.0000000), wk =   0.0120000
        k(    8) = (   0.2121320   0.0707107  -0.0707107), wk =   0.0480000
        k(    9) = (   0.2828427   0.1414214  -0.1414214), wk =   0.0480000
        k(   10) = (   0.3535534   0.2121320  -0.2121320), wk =   0.0480000
        k(   11) = (  -0.2828427  -0.4242641   0.4242641), wk =   0.0480000
        k(   12) = (  -0.2121320  -0.3535534   0.3535534), wk =   0.0480000
        k(   13) = (  -0.1414214  -0.2828427   0.2828427), wk =   0.0480000
        k(   14) = (  -0.0707107  -0.2121320   0.2121320), wk =   0.0480000
        k(   15) = (   0.0000000  -0.1414214   0.1414214), wk =   0.0240000
        k(   16) = (   0.2828427   0.0000000   0.0000000), wk =   0.0120000
        k(   17) = (   0.3535534   0.0707107  -0.0707107), wk =   0.0480000
        k(   18) = (   0.4242641   0.1414214  -0.1414214), wk =   0.0480000
        k(   19) = (  -0.2121320  -0.4949747   0.4949747), wk =   0.0480000
        k(   20) = (  -0.1414214  -0.4242641   0.4242641), wk =   0.0480000
        k(   21) = (  -0.0707107  -0.3535534   0.3535534), wk =   0.0480000
        k(   22) = (   0.0000000  -0.2828427   0.2828427), wk =   0.0240000
        k(   23) = (   0.4242641   0.0000000   0.0000000), wk =   0.0120000
        k(   24) = (   0.4949747   0.0707107  -0.0707107), wk =   0.0480000
        k(   25) = (  -0.1414214  -0.5656854   0.5656854), wk =   0.0480000
        k(   26) = (  -0.0707107  -0.4949747   0.4949747), wk =   0.0480000
        k(   27) = (   0.0000000  -0.4242641   0.4242641), wk =   0.0240000
        k(   28) = (   0.5656854   0.0000000   0.0000000), wk =   0.0120000
        k(   29) = (  -0.0707107  -0.6363961   0.6363961), wk =   0.0480000
        k(   30) = (   0.0000000  -0.5656854   0.5656854), wk =   0.0240000
        k(   31) = (  -0.7071068   0.0000000   0.0000000), wk =   0.0060000
        k(   32) = (   0.2828427   0.1414214  -0.0000000), wk =   0.0480000
        k(   33) = (   0.3535534   0.2121320  -0.0707107), wk =   0.0960000
        k(   34) = (  -0.2828427  -0.4242641   0.5656854), wk =   0.0960000
        k(   35) = (  -0.2121320  -0.3535534   0.4949747), wk =   0.0480000
        k(   36) = (   0.4242641   0.1414214   0.0000000), wk =   0.0480000
        k(   37) = (  -0.2121320  -0.4949747   0.6363961), wk =   0.0960000
        k(   38) = (  -0.1414214  -0.4242641   0.5656854), wk =   0.0960000
        k(   39) = (  -0.0707107  -0.3535534   0.4949747), wk =   0.0960000
        k(   40) = (   0.0000000  -0.2828427   0.4242641), wk =   0.0480000
        k(   41) = (  -0.1414214  -0.5656854   0.7071068), wk =   0.0480000
        k(   42) = (  -0.0707107  -0.4949747   0.6363961), wk =   0.0960000
        k(   43) = (   0.0000000  -0.4242641   0.5656854), wk =   0.0480000
        k(   44) = (  -0.7071068   0.1414214  -0.0000000), wk =   0.0240000
        k(   45) = (  -0.1414214  -0.4242641   0.7071068), wk =   0.0480000
        k(   46) = (  -0.0707107  -0.3535534   0.6363961), wk =   0.0480000
        k(   47) = (  -0.7071068   0.2828427  -0.0000000), wk =   0.0240000

     Dense  grid:    36325 G-vectors     FFT dimensions: (  48,  48,  48)

     Smooth grid:    12939 G-vectors     FFT dimensions: (  36,  36,  36)

     Estimated max dynamical RAM per process >     133.94 MB

     Initial potential from superposition of free atoms

     starting charge       7.9989, renormalised to       8.0000
     Starting wfcs are    8 randomized atomic wfcs

     total cpu time spent up to now is        0.4 secs

     Self-consistent Calculation

     iteration #  1     ecut=    50.00 Ry     beta= 0.70
     Davidson diagonalization with overlap
     ethr =  1.00E-02,  avg # of iterations =  2.0

     Threshold (ethr) on eigenvalues was too large:
     Diagonalizing with lowered threshold

     Davidson diagonalization with overlap
     ethr =  6.21E-04,  avg # of iterations =  1.5

     total cpu time spent up to now is        1.1 secs

     total energy              =     -22.83704970 Ry
     estimated scf accuracy    <       0.05380467 Ry

     iteration #  2     ecut=    50.00 Ry     beta= 0.70
     Davidson diagonalization with overlap
     ethr =  6.73E-04,  avg # of iterations =  1.0

     total cpu time spent up to now is        1.5 secs

     total energy              =     -22.83888216 Ry
     estimated scf accuracy    <       0.00283605 Ry

     iteration #  3     ecut=    50.00 Ry     beta= 0.70
     Davidson diagonalization with overlap
     ethr =  3.55E-05,  avg # of iterations =  2.8

     total cpu time spent up to now is        2.0 secs

     total energy              =     -22.83969144 Ry
     estimated scf accuracy    <       0.00010874 Ry

     iteration #  4     ecut=    50.00 Ry     beta= 0.70
     Davidson diagonalization with overlap
     ethr =  1.36E-06,  avg # of iterations =  4.1

     total cpu time spent up to now is        2.5 secs

     total energy              =     -22.83975911 Ry
     estimated scf accuracy    <       0.00001555 Ry

     iteration #  5     ecut=    50.00 Ry     beta= 0.70
     Davidson diagonalization with overlap
     ethr =  1.94E-07,  avg # of iterations =  3.3

     total cpu time spent up to now is        2.9 secs

     total energy              =     -22.83976524 Ry
     estimated scf accuracy    <       0.00000039 Ry

     iteration #  6     ecut=    50.00 Ry     beta= 0.70
     Davidson diagonalization with overlap
     ethr =  4.87E-09,  avg # of iterations =  5.3

     total cpu time spent up to now is        3.4 secs

     total energy              =     -22.83976566 Ry
     estimated scf accuracy    <       0.00000020 Ry

     iteration #  7     ecut=    50.00 Ry     beta= 0.70
     Davidson diagonalization with overlap
     ethr =  2.46E-09,  avg # of iterations =  2.1

     total cpu time spent up to now is        3.9 secs

     total energy              =     -22.83976569 Ry
     estimated scf accuracy    <          4.6E-09 Ry

     iteration #  8     ecut=    50.00 Ry     beta= 0.70
     Davidson diagonalization with overlap
     ethr =  5.70E-11,  avg # of iterations =  4.9

     total cpu time spent up to now is        4.4 secs

     total energy              =     -22.83976569 Ry
     estimated scf accuracy    <          1.8E-10 Ry

     iteration #  9     ecut=    50.00 Ry     beta= 0.70
     Davidson diagonalization with overlap
     ethr =  2.27E-12,  avg # of iterations =  4.3

     total cpu time spent up to now is        4.9 secs

     End of self-consistent calculation

          k = 0.0000 0.0000 0.0000 (  1639 PWs)   bands (ev):

    -5.7590   6.2040   6.2040   6.2040

          k = 0.0707 0.0707-0.0707 (  1606 PWs)   bands (ev):

    -5.6281   5.0578   6.0053   6.0053

          k = 0.1414 0.1414-0.1414 (  1606 PWs)   bands (ev):

    -5.2417   3.1940   5.6239   5.6239

          k = 0.2121 0.2121-0.2121 (  1615 PWs)   bands (ev):

    -4.6263   1.4070   5.2886   5.2886

          k = 0.2828 0.2828-0.2828 (  1616 PWs)   bands (ev):

    -3.8794  -0.0696   5.0759   5.0759

          k =-0.3536-0.3536 0.3536 (  1622 PWs)   bands (ev):

    -3.4279  -0.7677   5.0042   5.0042

          k = 0.1414 0.0000 0.0000 (  1599 PWs)   bands (ev):

    -5.5842   5.2651   5.6268   5.6268

          k = 0.2121 0.0707-0.0707 (  1609 PWs)   bands (ev):

    -5.2817   3.7515   5.1914   5.3629

          k = 0.2828 0.1414-0.1414 (  1607 PWs)   bands (ev):

    -4.7382   1.9900   4.8721   4.9292

          k = 0.3536 0.2121-0.2121 (  1610 PWs)   bands (ev):

    -4.0142   0.4161   4.5172   4.7245

          k =-0.2828-0.4243 0.4243 (  1609 PWs)   bands (ev):

    -3.3734  -0.6215   4.2266   4.7575

          k =-0.2121-0.3536 0.3536 (  1612 PWs)   bands (ev):

    -3.5407  -0.3726   4.0980   4.9574

          k =-0.1414-0.2828 0.2828 (  1621 PWs)   bands (ev):

    -4.2697   0.9102   4.1579   5.2925

          k =-0.0707-0.2121 0.2121 (  1600 PWs)   bands (ev):

    -4.9456   2.5604   4.4333   5.6993

          k = 0.0000-0.1414 0.1414 (  1592 PWs)   bands (ev):

    -5.4115   4.1724   5.0428   6.0270

          k = 0.2828 0.0000 0.0000 (  1607 PWs)   bands (ev):

    -5.0636   3.5794   4.7147   4.7147

          k = 0.3536 0.0707-0.0707 (  1612 PWs)   bands (ev):

    -4.5979   2.3319   4.2074   4.3662

          k = 0.4243 0.1414-0.1414 (  1619 PWs)   bands (ev):

    -3.9226   0.8938   3.5789   4.2064

          k =-0.2121-0.4950 0.4950 (  1606 PWs)   bands (ev):

    -3.1914  -0.2911   3.0689   4.2504

          k =-0.1414-0.4243 0.4243 (  1596 PWs)   bands (ev):

    -3.0384  -0.4996   2.7700   4.4889

          k =-0.0707-0.3536 0.3536 (  1610 PWs)   bands (ev):

    -3.6924   0.4879   2.7493   4.8866

          k = 0.0000-0.2828 0.2828 (  1610 PWs)   bands (ev):

    -4.4103   1.7268   3.2023   5.3576

          k = 0.4243 0.0000 0.0000 (  1620 PWs)   bands (ev):

    -4.2099   1.7867   3.9730   3.9730

          k = 0.4950 0.0707-0.0707 (  1625 PWs)   bands (ev):

    -3.5971   0.7807   3.3467   3.7681

          k =-0.1414-0.5657 0.5657 (  1619 PWs)   bands (ev):

    -2.8467  -0.2257   2.5176   3.7747

          k =-0.0707-0.4950 0.4950 (  1617 PWs)   bands (ev):

    -2.4274  -0.7018   1.9638   3.9904

          k = 0.0000-0.4243 0.4243 (  1608 PWs)   bands (ev):

    -2.9659  -0.1120   1.9377   4.3870

          k = 0.5657 0.0000 0.0000 (  1624 PWs)   bands (ev):

    -3.0470   0.0241   3.5078   3.5078

          k =-0.0707-0.6364 0.6364 (  1623 PWs)   bands (ev):

    -2.3180  -0.8165   2.9218   3.4592

          k = 0.0000-0.5657 0.5657 (  1622 PWs)   bands (ev):

    -1.8421  -1.2370   2.1385   3.6266

          k =-0.7071 0.0000 0.0000 (  1604 PWs)   bands (ev):

    -1.6150  -1.6150   3.3502   3.3502

          k = 0.2828 0.1414-0.0000 (  1613 PWs)   bands (ev):

    -4.8983   2.8287   4.1220   5.2319

          k = 0.3536 0.2121-0.0707 (  1609 PWs)   bands (ev):

    -4.2869   1.4192   3.5334   4.8564

          k =-0.2828-0.4243 0.5657 (  1618 PWs)   bands (ev):

    -3.5400   0.0558   3.3022   4.5059

          k =-0.2121-0.3536 0.4950 (  1608 PWs)   bands (ev):

    -3.0810  -0.6221   3.2424   4.3679

          k = 0.4243 0.1414 0.0000 (  1617 PWs)   bands (ev):

    -4.0602   1.4304   3.3951   4.1174

          k =-0.2121-0.4950 0.6364 (  1617 PWs)   bands (ev):

    -3.3399   0.3284   2.7765   3.7884

          k =-0.1414-0.4243 0.5657 (  1613 PWs)   bands (ev):

    -2.6898  -0.5347   2.3680   3.7328

          k =-0.0707-0.3536 0.4950 (  1613 PWs)   bands (ev):

    -2.8912  -0.2753   2.2173   3.9730

          k = 0.0000-0.2828 0.4243 (  1607 PWs)   bands (ev):

    -3.6268   0.6744   2.5178   4.4134

          k =-0.1414-0.5657 0.7071 (  1621 PWs)   bands (ev):

    -2.9287  -0.0615   2.9840   3.3104

          k =-0.0707-0.4950 0.6364 (  1625 PWs)   bands (ev):

    -2.1903  -0.8363   2.2820   3.2197

          k = 0.0000-0.4243 0.5657 (  1614 PWs)   bands (ev):

    -2.1958  -0.8096   1.8660   3.4895

          k =-0.7071 0.1414-0.0000 (  1624 PWs)   bands (ev):

    -1.5619  -1.5619   2.9411   2.9411

          k =-0.1414-0.4243 0.7071 (  1616 PWs)   bands (ev):

    -2.6078  -0.3595   2.2233   3.2106

          k =-0.0707-0.3536 0.6364 (  1608 PWs)   bands (ev):

    -2.0966  -0.8688   2.0655   2.9593

          k =-0.7071 0.2828-0.0000 (  1626 PWs)   bands (ev):

    -1.4682  -1.4682   2.4277   2.4277

     highest occupied level (ev):     6.2040

!    total energy              =     -22.83976569 Ry
     estimated scf accuracy    <          6.6E-12 Ry

     The total energy is the sum of the following terms:
     one-electron contribution =       5.16660847 Ry
     hartree contribution      =       1.10046499 Ry
     xc contribution           =     -12.30913282 Ry
     ewald contribution        =     -16.79770633 Ry

     convergence has been achieved in   9 iterations

     Writing all to output data dir ./out/si_e50_k10/si_e50_k10.save/ :
     XML data file, charge density, pseudopotentials, collected wavefunctions

     init_run     :      1.12s CPU      0.33s WALL (       1 calls)
     electrons    :     16.62s CPU      4.52s WALL (       1 calls)

     Called by init_run:
     wfcinit      :      0.36s CPU      0.09s WALL (       1 calls)
     potinit      :      0.07s CPU      0.02s WALL (       1 calls)
     hinit0       :      0.39s CPU      0.11s WALL (       1 calls)

     Called by electrons:
     c_bands      :     10.33s CPU      2.68s WALL (      10 calls)
     sum_band     :      3.35s CPU      0.98s WALL (      10 calls)
     v_of_rho     :      0.34s CPU      0.09s WALL (      10 calls)
     newd         :      2.85s CPU      0.85s WALL (      10 calls)
     mix_rho      :      0.04s CPU      0.01s WALL (      10 calls)

     Called by c_bands:
     init_us_2    :      0.55s CPU      0.14s WALL (     987 calls)
     cegterg      :      5.35s CPU      1.38s WALL (     470 calls)

     Called by *egterg:
     cdiaghg      :      0.12s CPU      0.03s WALL (    1889 calls)
     h_psi        :      4.21s CPU      1.17s WALL (    1983 calls)
     s_psi        :      0.17s CPU      0.07s WALL (    1983 calls)
     g_psi        :      0.09s CPU      0.01s WALL (    1466 calls)

     Called by h_psi:
     h_psi:calbec :      0.30s CPU      0.06s WALL (    1983 calls)
     vloc_psi     :      3.72s CPU      1.03s WALL (    1983 calls)
                                        0.00s GPU  (    1983 calls)
     add_vuspsi   :      0.17s CPU      0.07s WALL (    1983 calls)

     General routines
     calbec       :      0.31s CPU      0.07s WALL (    2453 calls)
     fft          :      0.02s CPU      0.02s WALL (     129 calls)
     ffts         :      0.00s CPU      0.00s WALL (      20 calls)
     fftw         :      1.04s CPU      0.89s WALL (   14856 calls)
     interpolate  :      0.01s CPU      0.00s WALL (      10 calls)

     Parallel routines

     PWSCF        :     17.82s CPU      4.89s WALL


   This run was terminated on:  21:38:21   4Aug2026

=------------------------------------------------------------------------------=
   JOB DONE.
=------------------------------------------------------------------------------=
