
     Program PWSCF v.7.5 starts on  4Aug2026 at 21:38:12

     This program is part of the open-source Quantum ESPRESSO suite
     for quantum simulation of materials; please cite
         "P. Giannozzi et al., J. Phys.:Condens. Matter 21 395502 (2009);
         "P. Giannozzi et al., J. Phys.:Condens. Matter 29 465901 (2017);
         "P. Giannozzi et al., J. Chem. Phys. 152 154105 (2020);
          URL http://www.quantum-espresso.org",
     in publications or presentations arising from this work. More details at
     http://www.quantum-espresso.org/quote

     Parallel version (MPI & OpenMP), running on       4 processor cores
     Number of MPI processes:                 1
     Threads/MPI process:                     4

     MPI processes distributed on     1 nodes
     61696 MiB available memory on the printing compute node when the environment starts

     Reading input from si_e50_k8.in

     Current dimensions of program PWSCF are:
     Max number of different atomic species (ntypx) = 10
     Max number of k-points (npk) =  40000
     Max angular momentum in pseudopotentials (lmaxx) =  4
     Message from routine setup:
     using ibrav=0 with symmetry is DISCOURAGED, use correct ibrav instead

     Subspace diagonalization in iterative solution of the eigenvalue problem:
     a serial algorithm will be used


     G-vector sticks info
     --------------------
     sticks:   dense  smooth     PW     G-vecs:    dense   smooth      PW
     Sum        1453     733    223                36325    12939    2229

     Using Slab Decomposition



     bravais-lattice index     =            0
     lattice parameter (alat)  =       7.2563  a.u.
     unit-cell volume          =     270.1669 (a.u.)^3
     number of atoms/cell      =            2
     number of atomic types    =            1
     number of electrons       =         8.00
     number of Kohn-Sham states=            4
     kinetic-energy cutoff     =      50.0000  Ry
     charge density cutoff     =     400.0000  Ry
     scf convergence threshold =      1.0E-10
     mixing beta               =       0.7000
     number of iterations used =            8  plain     mixing
     Exchange-correlation= PBE
                           (   1   4   3   4   0   0   0)

     celldm(1)=   7.256308  celldm(2)=   0.000000  celldm(3)=   0.000000
     celldm(4)=   0.000000  celldm(5)=   0.000000  celldm(6)=   0.000000

     crystal axes: (cart. coord. in units of alat)
               a(1) = (   0.000000   0.707107   0.707107 )
               a(2) = (   0.707107   0.000000   0.707107 )
               a(3) = (   0.707107   0.707107   0.000000 )

     reciprocal axes: (cart. coord. in units 2 pi/alat)
               b(1) = ( -0.707107  0.707107  0.707107 )
               b(2) = (  0.707107 -0.707107  0.707107 )
               b(3) = (  0.707107  0.707107 -0.707107 )


     PseudoPot. # 1 for Si read from file:
     ./pseudo/Si.pbe-n-rrkjus_psl.1.0.0.UPF
     MD5 check sum: 0b0bb1205258b0d07b9f9672cf965d36
     Pseudo is Ultrasoft + core correction, Zval =  4.0
     Generated using "atomic" code by A. Dal Corso  v.5.1
     Using radial grid of 1141 points,  6 beta functions with:
                l(1) =   0
                l(2) =   0
                l(3) =   1
                l(4) =   1
                l(5) =   2
                l(6) =   2
     Q(r) pseudized with 0 coefficients


     atomic species   valence    mass     pseudopotential
     Si                4.00    28.08550     Si( 1.00)

     48 Sym. Ops., with inversion, found (24 have fractional translation)



   Cartesian axes

     site n.     atom                  positions (alat units)
         1        Si     tau(   1) = (   0.0000000   0.0000000   0.0000000  )
         2        Si     tau(   2) = (   0.3535534   0.3535534   0.3535534  )

     number of k points=    29
                       cart. coord. in units 2pi/alat
        k(    1) = (   0.0000000   0.0000000   0.0000000), wk =   0.0039062
        k(    2) = (   0.0883883   0.0883883  -0.0883883), wk =   0.0312500
        k(    3) = (   0.1767767   0.1767767  -0.1767767), wk =   0.0312500
        k(    4) = (   0.2651650   0.2651650  -0.2651650), wk =   0.0312500
        k(    5) = (  -0.3535534  -0.3535534   0.3535534), wk =   0.0156250
        k(    6) = (   0.1767767   0.0000000   0.0000000), wk =   0.0234375
        k(    7) = (   0.2651650   0.0883883  -0.0883883), wk =   0.0937500
        k(    8) = (   0.3535534   0.1767767  -0.1767767), wk =   0.0937500
        k(    9) = (  -0.2651650  -0.4419417   0.4419417), wk =   0.0937500
        k(   10) = (  -0.1767767  -0.3535534   0.3535534), wk =   0.0937500
        k(   11) = (  -0.0883883  -0.2651650   0.2651650), wk =   0.0937500
        k(   12) = (   0.0000000  -0.1767767   0.1767767), wk =   0.0468750
        k(   13) = (   0.3535534   0.0000000   0.0000000), wk =   0.0234375
        k(   14) = (   0.4419417   0.0883883  -0.0883883), wk =   0.0937500
        k(   15) = (  -0.1767767  -0.5303301   0.5303301), wk =   0.0937500
        k(   16) = (  -0.0883883  -0.4419417   0.4419417), wk =   0.0937500
        k(   17) = (   0.0000000  -0.3535534   0.3535534), wk =   0.0468750
        k(   18) = (   0.5303301   0.0000000   0.0000000), wk =   0.0234375
        k(   19) = (  -0.0883883  -0.6187184   0.6187184), wk =   0.0937500
        k(   20) = (   0.0000000  -0.5303301   0.5303301), wk =   0.0468750
        k(   21) = (  -0.7071068   0.0000000   0.0000000), wk =   0.0117188
        k(   22) = (   0.3535534   0.1767767   0.0000000), wk =   0.0937500
        k(   23) = (  -0.2651650  -0.4419417   0.6187184), wk =   0.1875000
        k(   24) = (  -0.1767767  -0.3535534   0.5303301), wk =   0.0937500
        k(   25) = (  -0.1767767  -0.5303301   0.7071068), wk =   0.0937500
        k(   26) = (  -0.0883883  -0.4419417   0.6187184), wk =   0.1875000
        k(   27) = (   0.0000000  -0.3535534   0.5303301), wk =   0.0937500
        k(   28) = (  -0.7071068   0.1767767   0.0000000), wk =   0.0468750
        k(   29) = (  -0.7071068   0.3535534   0.0000000), wk =   0.0234375

     Dense  grid:    36325 G-vectors     FFT dimensions: (  48,  48,  48)

     Smooth grid:    12939 G-vectors     FFT dimensions: (  36,  36,  36)

     Estimated max dynamical RAM per process >     132.17 MB

     Initial potential from superposition of free atoms

     starting charge       7.9989, renormalised to       8.0000
     Starting wfcs are    8 randomized atomic wfcs

     total cpu time spent up to now is        0.3 secs

     Self-consistent Calculation

     iteration #  1     ecut=    50.00 Ry     beta= 0.70
     Davidson diagonalization with overlap
     ethr =  1.00E-02,  avg # of iterations =  2.0

     Threshold (ethr) on eigenvalues was too large:
     Diagonalizing with lowered threshold

     Davidson diagonalization with overlap
     ethr =  6.23E-04,  avg # of iterations =  1.4

     total cpu time spent up to now is        0.9 secs

     total energy              =     -22.83686580 Ry
     estimated scf accuracy    <       0.05386059 Ry

     iteration #  2     ecut=    50.00 Ry     beta= 0.70
     Davidson diagonalization with overlap
     ethr =  6.73E-04,  avg # of iterations =  1.0

     total cpu time spent up to now is        1.2 secs

     total energy              =     -22.83867020 Ry
     estimated scf accuracy    <       0.00286013 Ry

     iteration #  3     ecut=    50.00 Ry     beta= 0.70
     Davidson diagonalization with overlap
     ethr =  3.58E-05,  avg # of iterations =  2.8

     total cpu time spent up to now is        1.5 secs

     total energy              =     -22.83945957 Ry
     estimated scf accuracy    <       0.00010900 Ry

     iteration #  4     ecut=    50.00 Ry     beta= 0.70
     Davidson diagonalization with overlap
     ethr =  1.36E-06,  avg # of iterations =  4.0

     total cpu time spent up to now is        1.9 secs

     total energy              =     -22.83952751 Ry
     estimated scf accuracy    <       0.00001596 Ry

     iteration #  5     ecut=    50.00 Ry     beta= 0.70
     Davidson diagonalization with overlap
     ethr =  2.00E-07,  avg # of iterations =  2.8

     total cpu time spent up to now is        2.3 secs

     total energy              =     -22.83953254 Ry
     estimated scf accuracy    <       0.00000022 Ry

     iteration #  6     ecut=    50.00 Ry     beta= 0.70
     Davidson diagonalization with overlap
     ethr =  2.70E-09,  avg # of iterations =  6.3

     total cpu time spent up to now is        2.7 secs

     total energy              =     -22.83953306 Ry
     estimated scf accuracy    <       0.00000013 Ry

     iteration #  7     ecut=    50.00 Ry     beta= 0.70
     Davidson diagonalization with overlap
     ethr =  1.62E-09,  avg # of iterations =  2.0

     total cpu time spent up to now is        3.0 secs

     total energy              =     -22.83953308 Ry
     estimated scf accuracy    <          8.2E-09 Ry

     iteration #  8     ecut=    50.00 Ry     beta= 0.70
     Davidson diagonalization with overlap
     ethr =  1.03E-10,  avg # of iterations =  3.2

     total cpu time spent up to now is        3.3 secs

     End of self-consistent calculation

          k = 0.0000 0.0000 0.0000 (  1639 PWs)   bands (ev):

    -5.7579   6.2053   6.2053   6.2053

          k = 0.0884 0.0884-0.0884 (  1606 PWs)   bands (ev):

    -5.5538   4.6056   5.9159   5.9159

          k = 0.1768 0.1768-0.1768 (  1618 PWs)   bands (ev):

    -4.9583   2.2765   5.4447   5.4447

          k = 0.2652 0.2652-0.2652 (  1610 PWs)   bands (ev):

    -4.0647   0.2560   5.1174   5.1174

          k =-0.3536-0.3536 0.3536 (  1622 PWs)   bands (ev):

    -3.4267  -0.7667   5.0054   5.0054

          k = 0.1768 0.0000 0.0000 (  1603 PWs)   bands (ev):

    -5.4850   4.8708   5.3977   5.3977

          k = 0.2652 0.0884-0.0884 (  1605 PWs)   bands (ev):

    -5.0164   2.9796   4.8856   4.9620

          k = 0.3536 0.1768-0.1768 (  1598 PWs)   bands (ev):

    -4.2016   0.9185   4.3701   4.6173

          k =-0.2652-0.4419 0.4419 (  1609 PWs)   bands (ev):

    -3.3401  -0.5453   3.9243   4.6418

          k =-0.1768-0.3536 0.3536 (  1614 PWs)   bands (ev):

    -3.5847  -0.1745   3.7425   4.9385

          k =-0.0884-0.2652 0.2652 (  1614 PWs)   bands (ev):

    -4.5079   1.5779   3.8933   5.4305

          k = 0.0000-0.1768 0.1768 (  1608 PWs)   bands (ev):

    -5.2177   3.5200   4.5757   5.9121

          k = 0.3536 0.0000 0.0000 (  1612 PWs)   bands (ev):

    -4.6761   2.6867   4.3140   4.3140

          k = 0.4419 0.0884-0.0884 (  1616 PWs)   bands (ev):

    -3.9662   1.2626   3.5333   3.9956

          k =-0.1768-0.5303 0.5303 (  1617 PWs)   bands (ev):

    -3.0401  -0.1796   2.6697   3.9988

          k =-0.0884-0.4419 0.4419 (  1611 PWs)   bands (ev):

    -2.8358  -0.4381   2.2110   4.3174

          k = 0.0000-0.3536 0.3536 (  1604 PWs)   bands (ev):

    -3.7144   0.7230   2.4512   4.8763

          k = 0.5303 0.0000 0.0000 (  1624 PWs)   bands (ev):

    -3.3637   0.4580   3.5970   3.5970

          k =-0.0884-0.6187 0.6187 (  1625 PWs)   bands (ev):

    -2.4664  -0.6271   2.7680   3.5208

          k = 0.0000-0.5303 0.5303 (  1624 PWs)   bands (ev):

    -2.0276  -1.0238   1.9019   3.7785

          k =-0.7071 0.0000 0.0000 (  1604 PWs)   bands (ev):

    -1.6138  -1.6138   3.3513   3.3513

          k = 0.3536 0.1768 0.0000 (  1610 PWs)   bands (ev):

    -4.4287   1.9140   3.4910   4.7766

          k =-0.2652-0.4419 0.6187 (  1618 PWs)   bands (ev):

    -3.5404   0.3617   2.8829   4.2748

          k =-0.1768-0.3536 0.5303 (  1614 PWs)   bands (ev):

    -2.8880  -0.5835   2.7540   4.0450

          k =-0.1768-0.5303 0.7071 (  1613 PWs)   bands (ev):

    -3.1651   0.2390   2.8416   3.4447

          k =-0.0884-0.4419 0.6187 (  1613 PWs)   bands (ev):

    -2.2903  -0.7291   2.1434   3.2439

          k = 0.0000-0.3536 0.5303 (  1616 PWs)   bands (ev):

    -2.6409  -0.3658   1.9765   3.6200

          k =-0.7071 0.1768 0.0000 (  1626 PWs)   bands (ev):

    -1.5358  -1.5358   2.7871   2.7871

          k =-0.7071 0.3536 0.0000 (  1628 PWs)   bands (ev):

    -1.4499  -1.4499   2.3512   2.3512

     highest occupied level (ev):     6.2053

!    total energy              =     -22.83953309 Ry
     estimated scf accuracy    <          7.3E-12 Ry

     The total energy is the sum of the following terms:
     one-electron contribution =       5.16645241 Ry
     hartree contribution      =       1.10122026 Ry
     xc contribution           =     -12.30949942 Ry
     ewald contribution        =     -16.79770633 Ry

     convergence has been achieved in   8 iterations

     Writing all to output data dir ./out/si_e50_k8/si_e50_k8.save/ :
     XML data file, charge density, pseudopotentials, collected wavefunctions

     init_run     :      0.98s CPU      0.29s WALL (       1 calls)
     electrons    :     10.93s CPU      3.02s WALL (       1 calls)

     Called by init_run:
     wfcinit      :      0.21s CPU      0.06s WALL (       1 calls)
     potinit      :      0.08s CPU      0.02s WALL (       1 calls)
     hinit0       :      0.38s CPU      0.11s WALL (       1 calls)

     Called by electrons:
     c_bands      :      5.64s CPU      1.46s WALL (       9 calls)
     sum_band     :      2.67s CPU      0.79s WALL (       9 calls)
     v_of_rho     :      0.30s CPU      0.08s WALL (       9 calls)
     newd         :      2.59s CPU      0.77s WALL (       9 calls)
     mix_rho      :      0.03s CPU      0.01s WALL (       9 calls)

     Called by c_bands:
     init_us_2    :      0.31s CPU      0.08s WALL (     551 calls)
     cegterg      :      2.86s CPU      0.73s WALL (     261 calls)

     Called by *egterg:
     cdiaghg      :      0.06s CPU      0.01s WALL (     972 calls)
     h_psi        :      2.26s CPU      0.63s WALL (    1030 calls)
     s_psi        :      0.09s CPU      0.03s WALL (    1030 calls)
     g_psi        :      0.05s CPU      0.01s WALL (     740 calls)

     Called by h_psi:
     h_psi:calbec :      0.15s CPU      0.03s WALL (    1030 calls)
     vloc_psi     :      2.01s CPU      0.55s WALL (    1030 calls)
                                        0.00s GPU  (    1030 calls)
     add_vuspsi   :      0.09s CPU      0.04s WALL (    1030 calls)

     General routines
     calbec       :      0.16s CPU      0.04s WALL (    1291 calls)
     fft          :      0.02s CPU      0.02s WALL (     116 calls)
     ffts         :      0.00s CPU      0.00s WALL (      18 calls)
     fftw         :      0.57s CPU      0.48s WALL (    8100 calls)
     interpolate  :      0.01s CPU      0.00s WALL (       9 calls)

     Parallel routines

     PWSCF        :     11.97s CPU      3.35s WALL


   This run was terminated on:  21:38:15   4Aug2026

=------------------------------------------------------------------------------=
   JOB DONE.
=------------------------------------------------------------------------------=
