
     Program PWSCF v.7.5 starts on  4Aug2026 at 21:37:52

     This program is part of the open-source Quantum ESPRESSO suite
     for quantum simulation of materials; please cite
         "P. Giannozzi et al., J. Phys.:Condens. Matter 21 395502 (2009);
         "P. Giannozzi et al., J. Phys.:Condens. Matter 29 465901 (2017);
         "P. Giannozzi et al., J. Chem. Phys. 152 154105 (2020);
          URL http://www.quantum-espresso.org",
     in publications or presentations arising from this work. More details at
     http://www.quantum-espresso.org/quote

     Parallel version (MPI & OpenMP), running on       4 processor cores
     Number of MPI processes:                 1
     Threads/MPI process:                     4

     MPI processes distributed on     1 nodes
     61892 MiB available memory on the printing compute node when the environment starts

     Reading input from si_e30_k8.in

     Current dimensions of program PWSCF are:
     Max number of different atomic species (ntypx) = 10
     Max number of k-points (npk) =  40000
     Max angular momentum in pseudopotentials (lmaxx) =  4
     Message from routine setup:
     using ibrav=0 with symmetry is DISCOURAGED, use correct ibrav instead

     Subspace diagonalization in iterative solution of the eigenvalue problem:
     a serial algorithm will be used


     G-vector sticks info
     --------------------
     sticks:   dense  smooth     PW     G-vecs:    dense   smooth      PW
     Sum         859     433    151                16889     5985    1139

     Using Slab Decomposition



     bravais-lattice index     =            0
     lattice parameter (alat)  =       7.2563  a.u.
     unit-cell volume          =     270.1669 (a.u.)^3
     number of atoms/cell      =            2
     number of atomic types    =            1
     number of electrons       =         8.00
     number of Kohn-Sham states=            4
     kinetic-energy cutoff     =      30.0000  Ry
     charge density cutoff     =     240.0000  Ry
     scf convergence threshold =      1.0E-10
     mixing beta               =       0.7000
     number of iterations used =            8  plain     mixing
     Exchange-correlation= PBE
                           (   1   4   3   4   0   0   0)

     celldm(1)=   7.256308  celldm(2)=   0.000000  celldm(3)=   0.000000
     celldm(4)=   0.000000  celldm(5)=   0.000000  celldm(6)=   0.000000

     crystal axes: (cart. coord. in units of alat)
               a(1) = (   0.000000   0.707107   0.707107 )
               a(2) = (   0.707107   0.000000   0.707107 )
               a(3) = (   0.707107   0.707107   0.000000 )

     reciprocal axes: (cart. coord. in units 2 pi/alat)
               b(1) = ( -0.707107  0.707107  0.707107 )
               b(2) = (  0.707107 -0.707107  0.707107 )
               b(3) = (  0.707107  0.707107 -0.707107 )


     PseudoPot. # 1 for Si read from file:
     ./pseudo/Si.pbe-n-rrkjus_psl.1.0.0.UPF
     MD5 check sum: 0b0bb1205258b0d07b9f9672cf965d36
     Pseudo is Ultrasoft + core correction, Zval =  4.0
     Generated using "atomic" code by A. Dal Corso  v.5.1
     Using radial grid of 1141 points,  6 beta functions with:
                l(1) =   0
                l(2) =   0
                l(3) =   1
                l(4) =   1
                l(5) =   2
                l(6) =   2
     Q(r) pseudized with 0 coefficients


     atomic species   valence    mass     pseudopotential
     Si                4.00    28.08550     Si( 1.00)

     48 Sym. Ops., with inversion, found (24 have fractional translation)



   Cartesian axes

     site n.     atom                  positions (alat units)
         1        Si     tau(   1) = (   0.0000000   0.0000000   0.0000000  )
         2        Si     tau(   2) = (   0.3535534   0.3535534   0.3535534  )

     number of k points=    29
                       cart. coord. in units 2pi/alat
        k(    1) = (   0.0000000   0.0000000   0.0000000), wk =   0.0039062
        k(    2) = (   0.0883883   0.0883883  -0.0883883), wk =   0.0312500
        k(    3) = (   0.1767767   0.1767767  -0.1767767), wk =   0.0312500
        k(    4) = (   0.2651650   0.2651650  -0.2651650), wk =   0.0312500
        k(    5) = (  -0.3535534  -0.3535534   0.3535534), wk =   0.0156250
        k(    6) = (   0.1767767   0.0000000   0.0000000), wk =   0.0234375
        k(    7) = (   0.2651650   0.0883883  -0.0883883), wk =   0.0937500
        k(    8) = (   0.3535534   0.1767767  -0.1767767), wk =   0.0937500
        k(    9) = (  -0.2651650  -0.4419417   0.4419417), wk =   0.0937500
        k(   10) = (  -0.1767767  -0.3535534   0.3535534), wk =   0.0937500
        k(   11) = (  -0.0883883  -0.2651650   0.2651650), wk =   0.0937500
        k(   12) = (   0.0000000  -0.1767767   0.1767767), wk =   0.0468750
        k(   13) = (   0.3535534   0.0000000   0.0000000), wk =   0.0234375
        k(   14) = (   0.4419417   0.0883883  -0.0883883), wk =   0.0937500
        k(   15) = (  -0.1767767  -0.5303301   0.5303301), wk =   0.0937500
        k(   16) = (  -0.0883883  -0.4419417   0.4419417), wk =   0.0937500
        k(   17) = (   0.0000000  -0.3535534   0.3535534), wk =   0.0468750
        k(   18) = (   0.5303301   0.0000000   0.0000000), wk =   0.0234375
        k(   19) = (  -0.0883883  -0.6187184   0.6187184), wk =   0.0937500
        k(   20) = (   0.0000000  -0.5303301   0.5303301), wk =   0.0468750
        k(   21) = (  -0.7071068   0.0000000   0.0000000), wk =   0.0117188
        k(   22) = (   0.3535534   0.1767767   0.0000000), wk =   0.0937500
        k(   23) = (  -0.2651650  -0.4419417   0.6187184), wk =   0.1875000
        k(   24) = (  -0.1767767  -0.3535534   0.5303301), wk =   0.0937500
        k(   25) = (  -0.1767767  -0.5303301   0.7071068), wk =   0.0937500
        k(   26) = (  -0.0883883  -0.4419417   0.6187184), wk =   0.1875000
        k(   27) = (   0.0000000  -0.3535534   0.5303301), wk =   0.0937500
        k(   28) = (  -0.7071068   0.1767767   0.0000000), wk =   0.0468750
        k(   29) = (  -0.7071068   0.3535534   0.0000000), wk =   0.0234375

     Dense  grid:    16889 G-vectors     FFT dimensions: (  36,  36,  36)

     Smooth grid:     5985 G-vectors     FFT dimensions: (  32,  32,  32)

     Estimated max dynamical RAM per process >      61.62 MB

     Initial potential from superposition of free atoms

     starting charge       7.9989, renormalised to       8.0000
     Starting wfcs are    8 randomized atomic wfcs

     total cpu time spent up to now is        0.2 secs

     Self-consistent Calculation

     iteration #  1     ecut=    30.00 Ry     beta= 0.70
     Davidson diagonalization with overlap
     ethr =  1.00E-02,  avg # of iterations =  2.0

     Threshold (ethr) on eigenvalues was too large:
     Diagonalizing with lowered threshold

     Davidson diagonalization with overlap
     ethr =  6.22E-04,  avg # of iterations =  1.5

     total cpu time spent up to now is        0.5 secs

     total energy              =     -22.83669607 Ry
     estimated scf accuracy    <       0.05394427 Ry

     iteration #  2     ecut=    30.00 Ry     beta= 0.70
     Davidson diagonalization with overlap
     ethr =  6.74E-04,  avg # of iterations =  1.0

     total cpu time spent up to now is        0.7 secs

     total energy              =     -22.83845524 Ry
     estimated scf accuracy    <       0.00286949 Ry

     iteration #  3     ecut=    30.00 Ry     beta= 0.70
     Davidson diagonalization with overlap
     ethr =  3.59E-05,  avg # of iterations =  2.7

     total cpu time spent up to now is        0.8 secs

     total energy              =     -22.83923587 Ry
     estimated scf accuracy    <       0.00010938 Ry

     iteration #  4     ecut=    30.00 Ry     beta= 0.70
     Davidson diagonalization with overlap
     ethr =  1.37E-06,  avg # of iterations =  3.7

     total cpu time spent up to now is        1.0 secs

     total energy              =     -22.83930632 Ry
     estimated scf accuracy    <       0.00001584 Ry

     iteration #  5     ecut=    30.00 Ry     beta= 0.70
     Davidson diagonalization with overlap
     ethr =  1.98E-07,  avg # of iterations =  3.3

     total cpu time spent up to now is        1.2 secs

     total energy              =     -22.83931238 Ry
     estimated scf accuracy    <       0.00000045 Ry

     iteration #  6     ecut=    30.00 Ry     beta= 0.70
     Davidson diagonalization with overlap
     ethr =  5.56E-09,  avg # of iterations =  4.9

     total cpu time spent up to now is        1.4 secs

     total energy              =     -22.83931274 Ry
     estimated scf accuracy    <       0.00000027 Ry

     iteration #  7     ecut=    30.00 Ry     beta= 0.70
     Davidson diagonalization with overlap
     ethr =  3.44E-09,  avg # of iterations =  2.0

     total cpu time spent up to now is        1.6 secs

     total energy              =     -22.83931278 Ry
     estimated scf accuracy    <          3.6E-09 Ry

     iteration #  8     ecut=    30.00 Ry     beta= 0.70
     Davidson diagonalization with overlap
     ethr =  4.45E-11,  avg # of iterations =  6.1

     total cpu time spent up to now is        1.8 secs

     total energy              =     -22.83931279 Ry
     estimated scf accuracy    <          3.2E-10 Ry

     iteration #  9     ecut=    30.00 Ry     beta= 0.70
     Davidson diagonalization with overlap
     ethr =  4.04E-12,  avg # of iterations =  2.7

     total cpu time spent up to now is        1.9 secs

     total energy              =     -22.83931279 Ry
     estimated scf accuracy    <          1.5E-10 Ry

     iteration # 10     ecut=    30.00 Ry     beta= 0.70
     Davidson diagonalization with overlap
     ethr =  1.85E-12,  avg # of iterations =  1.9

     total cpu time spent up to now is        2.1 secs

     End of self-consistent calculation

          k = 0.0000 0.0000 0.0000 (   749 PWs)   bands (ev):

    -5.7575   6.2059   6.2059   6.2059

          k = 0.0884 0.0884-0.0884 (   743 PWs)   bands (ev):

    -5.5534   4.6060   5.9165   5.9165

          k = 0.1768 0.1768-0.1768 (   754 PWs)   bands (ev):

    -4.9579   2.2768   5.4452   5.4452

          k = 0.2652 0.2652-0.2652 (   763 PWs)   bands (ev):

    -4.0643   0.2563   5.1177   5.1177

          k =-0.3536-0.3536 0.3536 (   754 PWs)   bands (ev):

    -3.4263  -0.7664   5.0058   5.0058

          k = 0.1768 0.0000 0.0000 (   745 PWs)   bands (ev):

    -5.4846   4.8713   5.3982   5.3982

          k = 0.2652 0.0884-0.0884 (   757 PWs)   bands (ev):

    -5.0160   2.9800   4.8860   4.9623

          k = 0.3536 0.1768-0.1768 (   746 PWs)   bands (ev):

    -4.2012   0.9188   4.3705   4.6177

          k =-0.2652-0.4419 0.4419 (   753 PWs)   bands (ev):

    -3.3397  -0.5449   3.9246   4.6421

          k =-0.1768-0.3536 0.3536 (   750 PWs)   bands (ev):

    -3.5843  -0.1742   3.7428   4.9389

          k =-0.0884-0.2652 0.2652 (   748 PWs)   bands (ev):

    -4.5075   1.5782   3.8937   5.4309

          k = 0.0000-0.1768 0.1768 (   753 PWs)   bands (ev):

    -5.2173   3.5204   4.5761   5.9126

          k = 0.3536 0.0000 0.0000 (   729 PWs)   bands (ev):

    -4.6757   2.6872   4.3144   4.3144

          k = 0.4419 0.0884-0.0884 (   751 PWs)   bands (ev):

    -3.9658   1.2630   3.5336   3.9960

          k =-0.1768-0.5303 0.5303 (   748 PWs)   bands (ev):

    -3.0398  -0.1792   2.6700   3.9991

          k =-0.0884-0.4419 0.4419 (   744 PWs)   bands (ev):

    -2.8354  -0.4377   2.2113   4.3177

          k = 0.0000-0.3536 0.3536 (   754 PWs)   bands (ev):

    -3.7140   0.7233   2.4515   4.8767

          k = 0.5303 0.0000 0.0000 (   753 PWs)   bands (ev):

    -3.3633   0.4584   3.5973   3.5973

          k =-0.0884-0.6187 0.6187 (   747 PWs)   bands (ev):

    -2.4660  -0.6267   2.7683   3.5211

          k = 0.0000-0.5303 0.5303 (   740 PWs)   bands (ev):

    -2.0272  -1.0234   1.9022   3.7788

          k =-0.7071 0.0000 0.0000 (   740 PWs)   bands (ev):

    -1.6134  -1.6134   3.3515   3.3515

          k = 0.3536 0.1768 0.0000 (   755 PWs)   bands (ev):

    -4.4283   1.9144   3.4913   4.7769

          k =-0.2652-0.4419 0.6187 (   747 PWs)   bands (ev):

    -3.5400   0.3621   2.8832   4.2751

          k =-0.1768-0.3536 0.5303 (   750 PWs)   bands (ev):

    -2.8876  -0.5832   2.7543   4.0453

          k =-0.1768-0.5303 0.7071 (   755 PWs)   bands (ev):

    -3.1647   0.2394   2.8419   3.4449

          k =-0.0884-0.4419 0.6187 (   748 PWs)   bands (ev):

    -2.2899  -0.7287   2.1436   3.2442

          k = 0.0000-0.3536 0.5303 (   747 PWs)   bands (ev):

    -2.6405  -0.3654   1.9767   3.6203

          k =-0.7071 0.1768 0.0000 (   742 PWs)   bands (ev):

    -1.5354  -1.5354   2.7874   2.7874

          k =-0.7071 0.3536 0.0000 (   744 PWs)   bands (ev):

    -1.4495  -1.4495   2.3514   2.3514

     highest occupied level (ev):     6.2059

!    total energy              =     -22.83931279 Ry
     estimated scf accuracy    <          2.1E-12 Ry

     The total energy is the sum of the following terms:
     one-electron contribution =       5.16654013 Ry
     hartree contribution      =       1.10121630 Ry
     xc contribution           =     -12.30936288 Ry
     ewald contribution        =     -16.79770634 Ry

     convergence has been achieved in  10 iterations

     Writing all to output data dir ./out/si_e30_k8/si_e30_k8.save/ :
     XML data file, charge density, pseudopotentials, collected wavefunctions

     init_run     :      0.66s CPU      0.19s WALL (       1 calls)
     electrons    :      6.82s CPU      1.89s WALL (       1 calls)

     Called by init_run:
     wfcinit      :      0.17s CPU      0.04s WALL (       1 calls)
     potinit      :      0.04s CPU      0.01s WALL (       1 calls)
     hinit0       :      0.31s CPU      0.09s WALL (       1 calls)

     Called by electrons:
     c_bands      :      3.77s CPU      0.98s WALL (      11 calls)
     sum_band     :      1.58s CPU      0.47s WALL (      11 calls)
     v_of_rho     :      0.17s CPU      0.04s WALL (      11 calls)
     newd         :      1.42s CPU      0.43s WALL (      11 calls)
     mix_rho      :      0.02s CPU      0.01s WALL (      11 calls)

     Called by c_bands:
     init_us_2    :      0.20s CPU      0.05s WALL (     667 calls)
     cegterg      :      2.21s CPU      0.57s WALL (     319 calls)

     Called by *egterg:
     cdiaghg      :      0.16s CPU      0.02s WALL (    1216 calls)
     h_psi        :      1.83s CPU      0.50s WALL (    1274 calls)
     s_psi        :      0.04s CPU      0.02s WALL (    1274 calls)
     g_psi        :      0.00s CPU      0.00s WALL (     926 calls)

     Called by h_psi:
     h_psi:calbec :      0.11s CPU      0.02s WALL (    1274 calls)
     vloc_psi     :      1.65s CPU      0.44s WALL (    1274 calls)
                                        0.00s GPU  (    1274 calls)
     add_vuspsi   :      0.05s CPU      0.02s WALL (    1274 calls)

     General routines
     calbec       :      0.12s CPU      0.02s WALL (    1593 calls)
     fft          :      0.01s CPU      0.01s WALL (     142 calls)
     ffts         :      0.00s CPU      0.00s WALL (      22 calls)
     fftw         :      0.43s CPU      0.36s WALL (    9660 calls)
     interpolate  :      0.01s CPU      0.00s WALL (      11 calls)

     Parallel routines

     PWSCF        :      7.54s CPU      2.12s WALL


   This run was terminated on:  21:37:54   4Aug2026

=------------------------------------------------------------------------------=
   JOB DONE.
=------------------------------------------------------------------------------=
