
     Program PWSCF v.7.5 starts on  4Aug2026 at 21:38: 8

     This program is part of the open-source Quantum ESPRESSO suite
     for quantum simulation of materials; please cite
         "P. Giannozzi et al., J. Phys.:Condens. Matter 21 395502 (2009);
         "P. Giannozzi et al., J. Phys.:Condens. Matter 29 465901 (2017);
         "P. Giannozzi et al., J. Chem. Phys. 152 154105 (2020);
          URL http://www.quantum-espresso.org",
     in publications or presentations arising from this work. More details at
     http://www.quantum-espresso.org/quote

     Parallel version (MPI & OpenMP), running on       4 processor cores
     Number of MPI processes:                 1
     Threads/MPI process:                     4

     MPI processes distributed on     1 nodes
     61846 MiB available memory on the printing compute node when the environment starts

     Reading input from si_e50_k6.in

     Current dimensions of program PWSCF are:
     Max number of different atomic species (ntypx) = 10
     Max number of k-points (npk) =  40000
     Max angular momentum in pseudopotentials (lmaxx) =  4
     Message from routine setup:
     using ibrav=0 with symmetry is DISCOURAGED, use correct ibrav instead

     Subspace diagonalization in iterative solution of the eigenvalue problem:
     a serial algorithm will be used


     G-vector sticks info
     --------------------
     sticks:   dense  smooth     PW     G-vecs:    dense   smooth      PW
     Sum        1453     733    223                36325    12939    2133

     Using Slab Decomposition



     bravais-lattice index     =            0
     lattice parameter (alat)  =       7.2563  a.u.
     unit-cell volume          =     270.1669 (a.u.)^3
     number of atoms/cell      =            2
     number of atomic types    =            1
     number of electrons       =         8.00
     number of Kohn-Sham states=            4
     kinetic-energy cutoff     =      50.0000  Ry
     charge density cutoff     =     400.0000  Ry
     scf convergence threshold =      1.0E-10
     mixing beta               =       0.7000
     number of iterations used =            8  plain     mixing
     Exchange-correlation= PBE
                           (   1   4   3   4   0   0   0)

     celldm(1)=   7.256308  celldm(2)=   0.000000  celldm(3)=   0.000000
     celldm(4)=   0.000000  celldm(5)=   0.000000  celldm(6)=   0.000000

     crystal axes: (cart. coord. in units of alat)
               a(1) = (   0.000000   0.707107   0.707107 )
               a(2) = (   0.707107   0.000000   0.707107 )
               a(3) = (   0.707107   0.707107   0.000000 )

     reciprocal axes: (cart. coord. in units 2 pi/alat)
               b(1) = ( -0.707107  0.707107  0.707107 )
               b(2) = (  0.707107 -0.707107  0.707107 )
               b(3) = (  0.707107  0.707107 -0.707107 )


     PseudoPot. # 1 for Si read from file:
     ./pseudo/Si.pbe-n-rrkjus_psl.1.0.0.UPF
     MD5 check sum: 0b0bb1205258b0d07b9f9672cf965d36
     Pseudo is Ultrasoft + core correction, Zval =  4.0
     Generated using "atomic" code by A. Dal Corso  v.5.1
     Using radial grid of 1141 points,  6 beta functions with:
                l(1) =   0
                l(2) =   0
                l(3) =   1
                l(4) =   1
                l(5) =   2
                l(6) =   2
     Q(r) pseudized with 0 coefficients


     atomic species   valence    mass     pseudopotential
     Si                4.00    28.08550     Si( 1.00)

     48 Sym. Ops., with inversion, found (24 have fractional translation)



   Cartesian axes

     site n.     atom                  positions (alat units)
         1        Si     tau(   1) = (   0.0000000   0.0000000   0.0000000  )
         2        Si     tau(   2) = (   0.3535534   0.3535534   0.3535534  )

     number of k points=    16
                       cart. coord. in units 2pi/alat
        k(    1) = (   0.0000000   0.0000000   0.0000000), wk =   0.0092593
        k(    2) = (   0.1178511   0.1178511  -0.1178511), wk =   0.0740741
        k(    3) = (   0.2357023   0.2357023  -0.2357023), wk =   0.0740741
        k(    4) = (  -0.3535534  -0.3535534   0.3535534), wk =   0.0370370
        k(    5) = (   0.2357023   0.0000000   0.0000000), wk =   0.0555556
        k(    6) = (   0.3535534   0.1178511  -0.1178511), wk =   0.2222222
        k(    7) = (  -0.2357023  -0.4714045   0.4714045), wk =   0.2222222
        k(    8) = (  -0.1178511  -0.3535534   0.3535534), wk =   0.2222222
        k(    9) = (  -0.0000000  -0.2357023   0.2357023), wk =   0.1111111
        k(   10) = (   0.4714045   0.0000000   0.0000000), wk =   0.0555556
        k(   11) = (  -0.1178511  -0.5892557   0.5892557), wk =   0.2222222
        k(   12) = (  -0.0000000  -0.4714045   0.4714045), wk =   0.1111111
        k(   13) = (  -0.7071068   0.0000000   0.0000000), wk =   0.0277778
        k(   14) = (  -0.2357023  -0.4714045   0.7071068), wk =   0.2222222
        k(   15) = (  -0.1178511  -0.3535534   0.5892557), wk =   0.2222222
        k(   16) = (  -0.7071068   0.2357023   0.0000000), wk =   0.1111111

     Dense  grid:    36325 G-vectors     FFT dimensions: (  48,  48,  48)

     Smooth grid:    12939 G-vectors     FFT dimensions: (  36,  36,  36)

     Estimated max dynamical RAM per process >     130.89 MB

     Initial potential from superposition of free atoms

     starting charge       7.9989, renormalised to       8.0000
     Starting wfcs are    8 randomized atomic wfcs

     total cpu time spent up to now is        0.3 secs

     Self-consistent Calculation

     iteration #  1     ecut=    50.00 Ry     beta= 0.70
     Davidson diagonalization with overlap
     ethr =  1.00E-02,  avg # of iterations =  2.0

     Threshold (ethr) on eigenvalues was too large:
     Diagonalizing with lowered threshold

     Davidson diagonalization with overlap
     ethr =  6.31E-04,  avg # of iterations =  1.4

     total cpu time spent up to now is        0.7 secs

     total energy              =     -22.83547151 Ry
     estimated scf accuracy    <       0.05459809 Ry

     iteration #  2     ecut=    50.00 Ry     beta= 0.70
     Davidson diagonalization with overlap
     ethr =  6.82E-04,  avg # of iterations =  1.0

     total cpu time spent up to now is        1.0 secs

     total energy              =     -22.83724386 Ry
     estimated scf accuracy    <       0.00292908 Ry

     iteration #  3     ecut=    50.00 Ry     beta= 0.70
     Davidson diagonalization with overlap
     ethr =  3.66E-05,  avg # of iterations =  2.9

     total cpu time spent up to now is        1.2 secs

     total energy              =     -22.83798951 Ry
     estimated scf accuracy    <       0.00010830 Ry

     iteration #  4     ecut=    50.00 Ry     beta= 0.70
     Davidson diagonalization with overlap
     ethr =  1.35E-06,  avg # of iterations =  3.7

     total cpu time spent up to now is        1.5 secs

     total energy              =     -22.83805221 Ry
     estimated scf accuracy    <       0.00001651 Ry

     iteration #  5     ecut=    50.00 Ry     beta= 0.70
     Davidson diagonalization with overlap
     ethr =  2.06E-07,  avg # of iterations =  3.2

     total cpu time spent up to now is        1.8 secs

     total energy              =     -22.83805733 Ry
     estimated scf accuracy    <       0.00000023 Ry

     iteration #  6     ecut=    50.00 Ry     beta= 0.70
     Davidson diagonalization with overlap
     ethr =  2.93E-09,  avg # of iterations =  5.8

     total cpu time spent up to now is        2.1 secs

     total energy              =     -22.83805769 Ry
     estimated scf accuracy    <       0.00000010 Ry

     iteration #  7     ecut=    50.00 Ry     beta= 0.70
     Davidson diagonalization with overlap
     ethr =  1.25E-09,  avg # of iterations =  2.2

     total cpu time spent up to now is        2.3 secs

     total energy              =     -22.83805771 Ry
     estimated scf accuracy    <       0.00000001 Ry

     iteration #  8     ecut=    50.00 Ry     beta= 0.70
     Davidson diagonalization with overlap
     ethr =  1.29E-10,  avg # of iterations =  2.6

     total cpu time spent up to now is        2.6 secs

     total energy              =     -22.83805771 Ry
     estimated scf accuracy    <          7.5E-10 Ry

     iteration #  9     ecut=    50.00 Ry     beta= 0.70
     Davidson diagonalization with overlap
     ethr =  9.39E-12,  avg # of iterations =  4.2

     total cpu time spent up to now is        2.9 secs

     End of self-consistent calculation

          k = 0.0000 0.0000 0.0000 (  1639 PWs)   bands (ev):

    -5.7527   6.2118   6.2118   6.2118

          k = 0.1179 0.1179-0.1179 (  1591 PWs)   bands (ev):

    -5.3915   3.8288   5.7604   5.7604

          k = 0.2357 0.2357-0.2357 (  1616 PWs)   bands (ev):

    -4.3759   0.8742   5.2097   5.2097

          k =-0.3536-0.3536 0.3536 (  1622 PWs)   bands (ev):

    -3.4210  -0.7618   5.0113   5.0113

          k = 0.2357 0.0000 0.0000 (  1607 PWs)   bands (ev):

    -5.2686   4.1726   5.0168   5.0168

          k = 0.3536 0.1179-0.1179 (  1611 PWs)   bands (ev):

    -4.4533   1.7729   4.2168   4.4632

          k =-0.2357-0.4714 0.4714 (  1607 PWs)   bands (ev):

    -3.2617  -0.3973   3.4324   4.4330

          k =-0.1179-0.3536 0.3536 (  1610 PWs)   bands (ev):

    -3.6468   0.2022   3.1615   4.9125

          k =-0.0000-0.2357 0.2357 (  1604 PWs)   bands (ev):

    -4.8033   2.4923   3.7965   5.6458

          k = 0.4714 0.0000 0.0000 (  1624 PWs)   bands (ev):

    -3.8485   1.1986   3.7912   3.7912

          k =-0.1179-0.5893 0.5893 (  1619 PWs)   bands (ev):

    -2.6845  -0.3565   2.5765   3.6546

          k =-0.0000-0.4714 0.4714 (  1612 PWs)   bands (ev):

    -2.4882  -0.5617   1.7953   4.0973

          k =-0.7071 0.0000 0.0000 (  1604 PWs)   bands (ev):

    -1.6081  -1.6081   3.3563   3.3563

          k =-0.2357-0.4714 0.7071 (  1610 PWs)   bands (ev):

    -3.4633   0.5653   2.6390   3.9143

          k =-0.1179-0.3536 0.5893 (  1610 PWs)   bands (ev):

    -2.4782  -0.6347   2.1989   3.4473

          k =-0.7071 0.2357 0.0000 (  1618 PWs)   bands (ev):

    -1.4882  -1.4882   2.5636   2.5636

     highest occupied level (ev):     6.2118

!    total energy              =     -22.83805771 Ry
     estimated scf accuracy    <          1.5E-12 Ry

     The total energy is the sum of the following terms:
     one-electron contribution =       5.16609486 Ry
     hartree contribution      =       1.10480700 Ry
     xc contribution           =     -12.31125324 Ry
     ewald contribution        =     -16.79770633 Ry

     convergence has been achieved in   9 iterations

     Writing all to output data dir ./out/si_e50_k6/si_e50_k6.save/ :
     XML data file, charge density, pseudopotentials, collected wavefunctions

     init_run     :      0.90s CPU      0.27s WALL (       1 calls)
     electrons    :      9.10s CPU      2.58s WALL (       1 calls)

     Called by init_run:
     wfcinit      :      0.12s CPU      0.03s WALL (       1 calls)
     potinit      :      0.07s CPU      0.02s WALL (       1 calls)
     hinit0       :      0.38s CPU      0.11s WALL (       1 calls)

     Called by electrons:
     c_bands      :      3.43s CPU      0.89s WALL (      10 calls)
     sum_band     :      2.71s CPU      0.82s WALL (      10 calls)
     v_of_rho     :      0.33s CPU      0.09s WALL (      10 calls)
     newd         :      2.90s CPU      0.86s WALL (      10 calls)
     mix_rho      :      0.04s CPU      0.01s WALL (      10 calls)

     Called by c_bands:
     init_us_2    :      0.19s CPU      0.05s WALL (     336 calls)
     cegterg      :      1.75s CPU      0.45s WALL (     160 calls)

     Called by *egterg:
     cdiaghg      :      0.04s CPU      0.01s WALL (     606 calls)
     h_psi        :      1.37s CPU      0.38s WALL (     638 calls)
     s_psi        :      0.06s CPU      0.02s WALL (     638 calls)
     g_psi        :      0.03s CPU      0.00s WALL (     462 calls)

     Called by h_psi:
     h_psi:calbec :      0.10s CPU      0.02s WALL (     638 calls)
     vloc_psi     :      1.21s CPU      0.34s WALL (     638 calls)
                                        0.00s GPU  (     638 calls)
     add_vuspsi   :      0.06s CPU      0.02s WALL (     638 calls)

     General routines
     calbec       :      0.10s CPU      0.02s WALL (     798 calls)
     fft          :      0.02s CPU      0.02s WALL (     129 calls)
     ffts         :      0.00s CPU      0.00s WALL (      20 calls)
     fftw         :      0.34s CPU      0.29s WALL (    4886 calls)
     interpolate  :      0.01s CPU      0.00s WALL (      10 calls)

     Parallel routines

     PWSCF        :     10.05s CPU      2.89s WALL


   This run was terminated on:  21:38:11   4Aug2026

=------------------------------------------------------------------------------=
   JOB DONE.
=------------------------------------------------------------------------------=
