
     Program PWSCF v.7.5 starts on  4Aug2026 at 21:38: 4

     This program is part of the open-source Quantum ESPRESSO suite
     for quantum simulation of materials; please cite
         "P. Giannozzi et al., J. Phys.:Condens. Matter 21 395502 (2009);
         "P. Giannozzi et al., J. Phys.:Condens. Matter 29 465901 (2017);
         "P. Giannozzi et al., J. Chem. Phys. 152 154105 (2020);
          URL http://www.quantum-espresso.org",
     in publications or presentations arising from this work. More details at
     http://www.quantum-espresso.org/quote

     Parallel version (MPI & OpenMP), running on       4 processor cores
     Number of MPI processes:                 1
     Threads/MPI process:                     4

     MPI processes distributed on     1 nodes
     61776 MiB available memory on the printing compute node when the environment starts

     Reading input from si_e40_k10.in

     Current dimensions of program PWSCF are:
     Max number of different atomic species (ntypx) = 10
     Max number of k-points (npk) =  40000
     Max angular momentum in pseudopotentials (lmaxx) =  4
     Message from routine setup:
     using ibrav=0 with symmetry is DISCOURAGED, use correct ibrav instead

     Subspace diagonalization in iterative solution of the eigenvalue problem:
     a serial algorithm will be used


     G-vector sticks info
     --------------------
     sticks:   dense  smooth     PW     G-vecs:    dense   smooth      PW
     Sum        1159     583    187                26229     9257    1639

     Using Slab Decomposition



     bravais-lattice index     =            0
     lattice parameter (alat)  =       7.2563  a.u.
     unit-cell volume          =     270.1669 (a.u.)^3
     number of atoms/cell      =            2
     number of atomic types    =            1
     number of electrons       =         8.00
     number of Kohn-Sham states=            4
     kinetic-energy cutoff     =      40.0000  Ry
     charge density cutoff     =     320.0000  Ry
     scf convergence threshold =      1.0E-10
     mixing beta               =       0.7000
     number of iterations used =            8  plain     mixing
     Exchange-correlation= PBE
                           (   1   4   3   4   0   0   0)

     celldm(1)=   7.256308  celldm(2)=   0.000000  celldm(3)=   0.000000
     celldm(4)=   0.000000  celldm(5)=   0.000000  celldm(6)=   0.000000

     crystal axes: (cart. coord. in units of alat)
               a(1) = (   0.000000   0.707107   0.707107 )
               a(2) = (   0.707107   0.000000   0.707107 )
               a(3) = (   0.707107   0.707107   0.000000 )

     reciprocal axes: (cart. coord. in units 2 pi/alat)
               b(1) = ( -0.707107  0.707107  0.707107 )
               b(2) = (  0.707107 -0.707107  0.707107 )
               b(3) = (  0.707107  0.707107 -0.707107 )


     PseudoPot. # 1 for Si read from file:
     ./pseudo/Si.pbe-n-rrkjus_psl.1.0.0.UPF
     MD5 check sum: 0b0bb1205258b0d07b9f9672cf965d36
     Pseudo is Ultrasoft + core correction, Zval =  4.0
     Generated using "atomic" code by A. Dal Corso  v.5.1
     Using radial grid of 1141 points,  6 beta functions with:
                l(1) =   0
                l(2) =   0
                l(3) =   1
                l(4) =   1
                l(5) =   2
                l(6) =   2
     Q(r) pseudized with 0 coefficients


     atomic species   valence    mass     pseudopotential
     Si                4.00    28.08550     Si( 1.00)

     48 Sym. Ops., with inversion, found (24 have fractional translation)



   Cartesian axes

     site n.     atom                  positions (alat units)
         1        Si     tau(   1) = (   0.0000000   0.0000000   0.0000000  )
         2        Si     tau(   2) = (   0.3535534   0.3535534   0.3535534  )

     number of k points=    47
                       cart. coord. in units 2pi/alat
        k(    1) = (   0.0000000   0.0000000   0.0000000), wk =   0.0020000
        k(    2) = (   0.0707107   0.0707107  -0.0707107), wk =   0.0160000
        k(    3) = (   0.1414214   0.1414214  -0.1414214), wk =   0.0160000
        k(    4) = (   0.2121320   0.2121320  -0.2121320), wk =   0.0160000
        k(    5) = (   0.2828427   0.2828427  -0.2828427), wk =   0.0160000
        k(    6) = (  -0.3535534  -0.3535534   0.3535534), wk =   0.0080000
        k(    7) = (   0.1414214   0.0000000   0.0000000), wk =   0.0120000
        k(    8) = (   0.2121320   0.0707107  -0.0707107), wk =   0.0480000
        k(    9) = (   0.2828427   0.1414214  -0.1414214), wk =   0.0480000
        k(   10) = (   0.3535534   0.2121320  -0.2121320), wk =   0.0480000
        k(   11) = (  -0.2828427  -0.4242641   0.4242641), wk =   0.0480000
        k(   12) = (  -0.2121320  -0.3535534   0.3535534), wk =   0.0480000
        k(   13) = (  -0.1414214  -0.2828427   0.2828427), wk =   0.0480000
        k(   14) = (  -0.0707107  -0.2121320   0.2121320), wk =   0.0480000
        k(   15) = (   0.0000000  -0.1414214   0.1414214), wk =   0.0240000
        k(   16) = (   0.2828427   0.0000000   0.0000000), wk =   0.0120000
        k(   17) = (   0.3535534   0.0707107  -0.0707107), wk =   0.0480000
        k(   18) = (   0.4242641   0.1414214  -0.1414214), wk =   0.0480000
        k(   19) = (  -0.2121320  -0.4949747   0.4949747), wk =   0.0480000
        k(   20) = (  -0.1414214  -0.4242641   0.4242641), wk =   0.0480000
        k(   21) = (  -0.0707107  -0.3535534   0.3535534), wk =   0.0480000
        k(   22) = (   0.0000000  -0.2828427   0.2828427), wk =   0.0240000
        k(   23) = (   0.4242641   0.0000000   0.0000000), wk =   0.0120000
        k(   24) = (   0.4949747   0.0707107  -0.0707107), wk =   0.0480000
        k(   25) = (  -0.1414214  -0.5656854   0.5656854), wk =   0.0480000
        k(   26) = (  -0.0707107  -0.4949747   0.4949747), wk =   0.0480000
        k(   27) = (   0.0000000  -0.4242641   0.4242641), wk =   0.0240000
        k(   28) = (   0.5656854   0.0000000   0.0000000), wk =   0.0120000
        k(   29) = (  -0.0707107  -0.6363961   0.6363961), wk =   0.0480000
        k(   30) = (   0.0000000  -0.5656854   0.5656854), wk =   0.0240000
        k(   31) = (  -0.7071068   0.0000000   0.0000000), wk =   0.0060000
        k(   32) = (   0.2828427   0.1414214  -0.0000000), wk =   0.0480000
        k(   33) = (   0.3535534   0.2121320  -0.0707107), wk =   0.0960000
        k(   34) = (  -0.2828427  -0.4242641   0.5656854), wk =   0.0960000
        k(   35) = (  -0.2121320  -0.3535534   0.4949747), wk =   0.0480000
        k(   36) = (   0.4242641   0.1414214   0.0000000), wk =   0.0480000
        k(   37) = (  -0.2121320  -0.4949747   0.6363961), wk =   0.0960000
        k(   38) = (  -0.1414214  -0.4242641   0.5656854), wk =   0.0960000
        k(   39) = (  -0.0707107  -0.3535534   0.4949747), wk =   0.0960000
        k(   40) = (   0.0000000  -0.2828427   0.4242641), wk =   0.0480000
        k(   41) = (  -0.1414214  -0.5656854   0.7071068), wk =   0.0480000
        k(   42) = (  -0.0707107  -0.4949747   0.6363961), wk =   0.0960000
        k(   43) = (   0.0000000  -0.4242641   0.5656854), wk =   0.0480000
        k(   44) = (  -0.7071068   0.1414214  -0.0000000), wk =   0.0240000
        k(   45) = (  -0.1414214  -0.4242641   0.7071068), wk =   0.0480000
        k(   46) = (  -0.0707107  -0.3535534   0.6363961), wk =   0.0480000
        k(   47) = (  -0.7071068   0.2828427  -0.0000000), wk =   0.0240000

     Dense  grid:    26229 G-vectors     FFT dimensions: (  48,  48,  48)

     Smooth grid:     9257 G-vectors     FFT dimensions: (  32,  32,  32)

     Estimated max dynamical RAM per process >      99.06 MB

     Initial potential from superposition of free atoms

     starting charge       7.9989, renormalised to       8.0000
     Starting wfcs are    8 randomized atomic wfcs

     total cpu time spent up to now is        0.3 secs

     Self-consistent Calculation

     iteration #  1     ecut=    40.00 Ry     beta= 0.70
     Davidson diagonalization with overlap
     ethr =  1.00E-02,  avg # of iterations =  2.0

     Threshold (ethr) on eigenvalues was too large:
     Diagonalizing with lowered threshold

     Davidson diagonalization with overlap
     ethr =  6.22E-04,  avg # of iterations =  1.5

     total cpu time spent up to now is        0.8 secs

     total energy              =     -22.83697455 Ry
     estimated scf accuracy    <       0.05385634 Ry

     iteration #  2     ecut=    40.00 Ry     beta= 0.70
     Davidson diagonalization with overlap
     ethr =  6.73E-04,  avg # of iterations =  1.0

     total cpu time spent up to now is        1.1 secs

     total energy              =     -22.83880584 Ry
     estimated scf accuracy    <       0.00282822 Ry

     iteration #  3     ecut=    40.00 Ry     beta= 0.70
     Davidson diagonalization with overlap
     ethr =  3.54E-05,  avg # of iterations =  2.8

     total cpu time spent up to now is        1.5 secs

     total energy              =     -22.83959945 Ry
     estimated scf accuracy    <       0.00010848 Ry

     iteration #  4     ecut=    40.00 Ry     beta= 0.70
     Davidson diagonalization with overlap
     ethr =  1.36E-06,  avg # of iterations =  3.9

     total cpu time spent up to now is        1.8 secs

     total energy              =     -22.83966610 Ry
     estimated scf accuracy    <       0.00001581 Ry

     iteration #  5     ecut=    40.00 Ry     beta= 0.70
     Davidson diagonalization with overlap
     ethr =  1.98E-07,  avg # of iterations =  3.2

     total cpu time spent up to now is        2.1 secs

     total energy              =     -22.83967151 Ry
     estimated scf accuracy    <       0.00000031 Ry

     iteration #  6     ecut=    40.00 Ry     beta= 0.70
     Davidson diagonalization with overlap
     ethr =  3.94E-09,  avg # of iterations =  5.6

     total cpu time spent up to now is        2.5 secs

     total energy              =     -22.83967194 Ry
     estimated scf accuracy    <       0.00000011 Ry

     iteration #  7     ecut=    40.00 Ry     beta= 0.70
     Davidson diagonalization with overlap
     ethr =  1.39E-09,  avg # of iterations =  2.3

     total cpu time spent up to now is        2.9 secs

     total energy              =     -22.83967197 Ry
     estimated scf accuracy    <          7.0E-09 Ry

     iteration #  8     ecut=    40.00 Ry     beta= 0.70
     Davidson diagonalization with overlap
     ethr =  8.74E-11,  avg # of iterations =  3.9

     total cpu time spent up to now is        3.2 secs

     total energy              =     -22.83967197 Ry
     estimated scf accuracy    <          2.4E-10 Ry

     iteration #  9     ecut=    40.00 Ry     beta= 0.70
     Davidson diagonalization with overlap
     ethr =  3.00E-12,  avg # of iterations =  4.2

     total cpu time spent up to now is        3.5 secs

     End of self-consistent calculation

          k = 0.0000 0.0000 0.0000 (  1139 PWs)   bands (ev):

    -5.7589   6.2041   6.2041   6.2041

          k = 0.0707 0.0707-0.0707 (  1179 PWs)   bands (ev):

    -5.6280   5.0579   6.0053   6.0053

          k = 0.1414 0.1414-0.1414 (  1167 PWs)   bands (ev):

    -5.2416   3.1941   5.6240   5.6240

          k = 0.2121 0.2121-0.2121 (  1161 PWs)   bands (ev):

    -4.6262   1.4071   5.2887   5.2887

          k = 0.2828 0.2828-0.2828 (  1161 PWs)   bands (ev):

    -3.8792  -0.0695   5.0760   5.0760

          k =-0.3536-0.3536 0.3536 (  1158 PWs)   bands (ev):

    -3.4278  -0.7677   5.0043   5.0043

          k = 0.1414 0.0000 0.0000 (  1171 PWs)   bands (ev):

    -5.5841   5.2652   5.6269   5.6269

          k = 0.2121 0.0707-0.0707 (  1164 PWs)   bands (ev):

    -5.2816   3.7516   5.1914   5.3630

          k = 0.2828 0.1414-0.1414 (  1159 PWs)   bands (ev):

    -4.7381   1.9901   4.8721   4.9293

          k = 0.3536 0.2121-0.2121 (  1150 PWs)   bands (ev):

    -4.0141   0.4162   4.5173   4.7246

          k =-0.2828-0.4243 0.4243 (  1158 PWs)   bands (ev):

    -3.3733  -0.6214   4.2266   4.7576

          k =-0.2121-0.3536 0.3536 (  1157 PWs)   bands (ev):

    -3.5406  -0.3725   4.0981   4.9575

          k =-0.1414-0.2828 0.2828 (  1144 PWs)   bands (ev):

    -4.2696   0.9103   4.1580   5.2926

          k =-0.0707-0.2121 0.2121 (  1156 PWs)   bands (ev):

    -4.9455   2.5605   4.4334   5.6993

          k = 0.0000-0.1414 0.1414 (  1165 PWs)   bands (ev):

    -5.4114   4.1725   5.0429   6.0271

          k = 0.2828 0.0000 0.0000 (  1170 PWs)   bands (ev):

    -5.0635   3.5795   4.7148   4.7148

          k = 0.3536 0.0707-0.0707 (  1154 PWs)   bands (ev):

    -4.5978   2.3320   4.2075   4.3663

          k = 0.4243 0.1414-0.1414 (  1156 PWs)   bands (ev):

    -3.9225   0.8939   3.5790   4.2065

          k =-0.2121-0.4950 0.4950 (  1158 PWs)   bands (ev):

    -3.1913  -0.2910   3.0690   4.2505

          k =-0.1414-0.4243 0.4243 (  1163 PWs)   bands (ev):

    -3.0383  -0.4995   2.7701   4.4890

          k =-0.0707-0.3536 0.3536 (  1150 PWs)   bands (ev):

    -3.6923   0.4880   2.7494   4.8867

          k = 0.0000-0.2828 0.2828 (  1151 PWs)   bands (ev):

    -4.4102   1.7269   3.2024   5.3577

          k = 0.4243 0.0000 0.0000 (  1146 PWs)   bands (ev):

    -4.2098   1.7868   3.9731   3.9731

          k = 0.4950 0.0707-0.0707 (  1149 PWs)   bands (ev):

    -3.5970   0.7808   3.3468   3.7682

          k =-0.1414-0.5657 0.5657 (  1146 PWs)   bands (ev):

    -2.8466  -0.2256   2.5176   3.7748

          k =-0.0707-0.4950 0.4950 (  1150 PWs)   bands (ev):

    -2.4273  -0.7017   1.9639   3.9905

          k = 0.0000-0.4243 0.4243 (  1145 PWs)   bands (ev):

    -2.9658  -0.1119   1.9378   4.3871

          k = 0.5657 0.0000 0.0000 (  1154 PWs)   bands (ev):

    -3.0469   0.0242   3.5079   3.5079

          k =-0.0707-0.6364 0.6364 (  1148 PWs)   bands (ev):

    -2.3179  -0.8164   2.9219   3.4593

          k = 0.0000-0.5657 0.5657 (  1152 PWs)   bands (ev):

    -1.8419  -1.2369   2.1386   3.6267

          k =-0.7071 0.0000 0.0000 (  1162 PWs)   bands (ev):

    -1.6149  -1.6149   3.3503   3.3503

          k = 0.2828 0.1414-0.0000 (  1154 PWs)   bands (ev):

    -4.8982   2.8288   4.1221   5.2320

          k = 0.3536 0.2121-0.0707 (  1150 PWs)   bands (ev):

    -4.2868   1.4193   3.5335   4.8565

          k =-0.2828-0.4243 0.5657 (  1149 PWs)   bands (ev):

    -3.5399   0.0559   3.3023   4.5060

          k =-0.2121-0.3536 0.4950 (  1156 PWs)   bands (ev):

    -3.0808  -0.6220   3.2425   4.3680

          k = 0.4243 0.1414 0.0000 (  1152 PWs)   bands (ev):

    -4.0601   1.4305   3.3952   4.1175

          k =-0.2121-0.4950 0.6364 (  1158 PWs)   bands (ev):

    -3.3398   0.3285   2.7766   3.7885

          k =-0.1414-0.4243 0.5657 (  1158 PWs)   bands (ev):

    -2.6896  -0.5346   2.3681   3.7329

          k =-0.0707-0.3536 0.4950 (  1152 PWs)   bands (ev):

    -2.8911  -0.2752   2.2174   3.9730

          k = 0.0000-0.2828 0.4243 (  1149 PWs)   bands (ev):

    -3.6267   0.6745   2.5179   4.4135

          k =-0.1414-0.5657 0.7071 (  1162 PWs)   bands (ev):

    -2.9286  -0.0614   2.9841   3.3105

          k =-0.0707-0.4950 0.6364 (  1153 PWs)   bands (ev):

    -2.1901  -0.8362   2.2821   3.2198

          k = 0.0000-0.4243 0.5657 (  1153 PWs)   bands (ev):

    -2.1957  -0.8095   1.8661   3.4896

          k =-0.7071 0.1414-0.0000 (  1156 PWs)   bands (ev):

    -1.5618  -1.5618   2.9412   2.9412

          k =-0.1414-0.4243 0.7071 (  1151 PWs)   bands (ev):

    -2.6077  -0.3593   2.2234   3.2106

          k =-0.0707-0.3536 0.6364 (  1162 PWs)   bands (ev):

    -2.0965  -0.8687   2.0656   2.9594

          k =-0.7071 0.2828-0.0000 (  1154 PWs)   bands (ev):

    -1.4681  -1.4681   2.4278   2.4278

     highest occupied level (ev):     6.2041

!    total energy              =     -22.83967197 Ry
     estimated scf accuracy    <          8.6E-12 Ry

     The total energy is the sum of the following terms:
     one-electron contribution =       5.16665627 Ry
     hartree contribution      =       1.10048767 Ry
     xc contribution           =     -12.30910957 Ry
     ewald contribution        =     -16.79770633 Ry

     convergence has been achieved in   9 iterations

     Writing all to output data dir ./out/si_e40_k10/si_e40_k10.save/ :
     XML data file, charge density, pseudopotentials, collected wavefunctions

     init_run     :      0.89s CPU      0.26s WALL (       1 calls)
     electrons    :     11.87s CPU      3.25s WALL (       1 calls)

     Called by init_run:
     wfcinit      :      0.25s CPU      0.06s WALL (       1 calls)
     potinit      :      0.07s CPU      0.02s WALL (       1 calls)
     hinit0       :      0.35s CPU      0.10s WALL (       1 calls)

     Called by electrons:
     c_bands      :      7.21s CPU      1.89s WALL (      10 calls)
     sum_band     :      2.40s CPU      0.71s WALL (      10 calls)
     v_of_rho     :      0.33s CPU      0.09s WALL (      10 calls)
     newd         :      2.12s CPU      0.63s WALL (      10 calls)
     mix_rho      :      0.03s CPU      0.01s WALL (      10 calls)

     Called by c_bands:
     init_us_2    :      0.41s CPU      0.10s WALL (     987 calls)
     cegterg      :      3.69s CPU      0.96s WALL (     470 calls)

     Called by *egterg:
     cdiaghg      :      0.12s CPU      0.03s WALL (    1852 calls)
     h_psi        :      2.82s CPU      0.79s WALL (    1946 calls)
     s_psi        :      0.12s CPU      0.05s WALL (    1946 calls)
     g_psi        :      0.04s CPU      0.01s WALL (    1429 calls)

     Called by h_psi:
     h_psi:calbec :      0.20s CPU      0.05s WALL (    1946 calls)
     vloc_psi     :      2.47s CPU      0.67s WALL (    1946 calls)
                                        0.00s GPU  (    1946 calls)
     add_vuspsi   :      0.12s CPU      0.05s WALL (    1946 calls)

     General routines
     calbec       :      0.22s CPU      0.05s WALL (    2416 calls)
     fft          :      0.02s CPU      0.02s WALL (     129 calls)
     ffts         :      0.00s CPU      0.00s WALL (      20 calls)
     fftw         :      0.67s CPU      0.55s WALL (   14654 calls)
     interpolate  :      0.01s CPU      0.00s WALL (      10 calls)

     Parallel routines

     PWSCF        :     12.83s CPU      3.55s WALL


   This run was terminated on:  21:38: 8   4Aug2026

=------------------------------------------------------------------------------=
   JOB DONE.
=------------------------------------------------------------------------------=
