
     Program PWSCF v.7.5 starts on  4Aug2026 at 21:37:50

     This program is part of the open-source Quantum ESPRESSO suite
     for quantum simulation of materials; please cite
         "P. Giannozzi et al., J. Phys.:Condens. Matter 21 395502 (2009);
         "P. Giannozzi et al., J. Phys.:Condens. Matter 29 465901 (2017);
         "P. Giannozzi et al., J. Chem. Phys. 152 154105 (2020);
          URL http://www.quantum-espresso.org",
     in publications or presentations arising from this work. More details at
     http://www.quantum-espresso.org/quote

     Parallel version (MPI & OpenMP), running on       4 processor cores
     Number of MPI processes:                 1
     Threads/MPI process:                     4

     MPI processes distributed on     1 nodes
     61979 MiB available memory on the printing compute node when the environment starts

     Reading input from si_e30_k6.in

     Current dimensions of program PWSCF are:
     Max number of different atomic species (ntypx) = 10
     Max number of k-points (npk) =  40000
     Max angular momentum in pseudopotentials (lmaxx) =  4
     Message from routine setup:
     using ibrav=0 with symmetry is DISCOURAGED, use correct ibrav instead

     Subspace diagonalization in iterative solution of the eigenvalue problem:
     a serial algorithm will be used


     G-vector sticks info
     --------------------
     sticks:   dense  smooth     PW     G-vecs:    dense   smooth      PW
     Sum         859     433    139                16889     5985    1067

     Using Slab Decomposition



     bravais-lattice index     =            0
     lattice parameter (alat)  =       7.2563  a.u.
     unit-cell volume          =     270.1669 (a.u.)^3
     number of atoms/cell      =            2
     number of atomic types    =            1
     number of electrons       =         8.00
     number of Kohn-Sham states=            4
     kinetic-energy cutoff     =      30.0000  Ry
     charge density cutoff     =     240.0000  Ry
     scf convergence threshold =      1.0E-10
     mixing beta               =       0.7000
     number of iterations used =            8  plain     mixing
     Exchange-correlation= PBE
                           (   1   4   3   4   0   0   0)

     celldm(1)=   7.256308  celldm(2)=   0.000000  celldm(3)=   0.000000
     celldm(4)=   0.000000  celldm(5)=   0.000000  celldm(6)=   0.000000

     crystal axes: (cart. coord. in units of alat)
               a(1) = (   0.000000   0.707107   0.707107 )
               a(2) = (   0.707107   0.000000   0.707107 )
               a(3) = (   0.707107   0.707107   0.000000 )

     reciprocal axes: (cart. coord. in units 2 pi/alat)
               b(1) = ( -0.707107  0.707107  0.707107 )
               b(2) = (  0.707107 -0.707107  0.707107 )
               b(3) = (  0.707107  0.707107 -0.707107 )


     PseudoPot. # 1 for Si read from file:
     ./pseudo/Si.pbe-n-rrkjus_psl.1.0.0.UPF
     MD5 check sum: 0b0bb1205258b0d07b9f9672cf965d36
     Pseudo is Ultrasoft + core correction, Zval =  4.0
     Generated using "atomic" code by A. Dal Corso  v.5.1
     Using radial grid of 1141 points,  6 beta functions with:
                l(1) =   0
                l(2) =   0
                l(3) =   1
                l(4) =   1
                l(5) =   2
                l(6) =   2
     Q(r) pseudized with 0 coefficients


     atomic species   valence    mass     pseudopotential
     Si                4.00    28.08550     Si( 1.00)

     48 Sym. Ops., with inversion, found (24 have fractional translation)



   Cartesian axes

     site n.     atom                  positions (alat units)
         1        Si     tau(   1) = (   0.0000000   0.0000000   0.0000000  )
         2        Si     tau(   2) = (   0.3535534   0.3535534   0.3535534  )

     number of k points=    16
                       cart. coord. in units 2pi/alat
        k(    1) = (   0.0000000   0.0000000   0.0000000), wk =   0.0092593
        k(    2) = (   0.1178511   0.1178511  -0.1178511), wk =   0.0740741
        k(    3) = (   0.2357023   0.2357023  -0.2357023), wk =   0.0740741
        k(    4) = (  -0.3535534  -0.3535534   0.3535534), wk =   0.0370370
        k(    5) = (   0.2357023   0.0000000   0.0000000), wk =   0.0555556
        k(    6) = (   0.3535534   0.1178511  -0.1178511), wk =   0.2222222
        k(    7) = (  -0.2357023  -0.4714045   0.4714045), wk =   0.2222222
        k(    8) = (  -0.1178511  -0.3535534   0.3535534), wk =   0.2222222
        k(    9) = (  -0.0000000  -0.2357023   0.2357023), wk =   0.1111111
        k(   10) = (   0.4714045   0.0000000   0.0000000), wk =   0.0555556
        k(   11) = (  -0.1178511  -0.5892557   0.5892557), wk =   0.2222222
        k(   12) = (  -0.0000000  -0.4714045   0.4714045), wk =   0.1111111
        k(   13) = (  -0.7071068   0.0000000   0.0000000), wk =   0.0277778
        k(   14) = (  -0.2357023  -0.4714045   0.7071068), wk =   0.2222222
        k(   15) = (  -0.1178511  -0.3535534   0.5892557), wk =   0.2222222
        k(   16) = (  -0.7071068   0.2357023   0.0000000), wk =   0.1111111

     Dense  grid:    16889 G-vectors     FFT dimensions: (  36,  36,  36)

     Smooth grid:     5985 G-vectors     FFT dimensions: (  32,  32,  32)

     Estimated max dynamical RAM per process >      61.03 MB

     Initial potential from superposition of free atoms

     starting charge       7.9989, renormalised to       8.0000
     Starting wfcs are    8 randomized atomic wfcs

     total cpu time spent up to now is        0.2 secs

     Self-consistent Calculation

     iteration #  1     ecut=    30.00 Ry     beta= 0.70
     Davidson diagonalization with overlap
     ethr =  1.00E-02,  avg # of iterations =  2.0

     Threshold (ethr) on eigenvalues was too large:
     Diagonalizing with lowered threshold

     Davidson diagonalization with overlap
     ethr =  6.33E-04,  avg # of iterations =  1.5

     total cpu time spent up to now is        0.4 secs

     total energy              =     -22.83524943 Ry
     estimated scf accuracy    <       0.05478593 Ry

     iteration #  2     ecut=    30.00 Ry     beta= 0.70
     Davidson diagonalization with overlap
     ethr =  6.85E-04,  avg # of iterations =  1.0

     total cpu time spent up to now is        0.6 secs

     total energy              =     -22.83705214 Ry
     estimated scf accuracy    <       0.00289433 Ry

     iteration #  3     ecut=    30.00 Ry     beta= 0.70
     Davidson diagonalization with overlap
     ethr =  3.62E-05,  avg # of iterations =  3.0

     total cpu time spent up to now is        0.7 secs

     total energy              =     -22.83777326 Ry
     estimated scf accuracy    <       0.00010564 Ry

     iteration #  4     ecut=    30.00 Ry     beta= 0.70
     Davidson diagonalization with overlap
     ethr =  1.32E-06,  avg # of iterations =  3.6

     total cpu time spent up to now is        0.8 secs

     total energy              =     -22.83783263 Ry
     estimated scf accuracy    <       0.00001437 Ry

     iteration #  5     ecut=    30.00 Ry     beta= 0.70
     Davidson diagonalization with overlap
     ethr =  1.80E-07,  avg # of iterations =  3.1

     total cpu time spent up to now is        0.9 secs

     total energy              =     -22.83783761 Ry
     estimated scf accuracy    <       0.00000036 Ry

     iteration #  6     ecut=    30.00 Ry     beta= 0.70
     Davidson diagonalization with overlap
     ethr =  4.45E-09,  avg # of iterations =  5.6

     total cpu time spent up to now is        1.1 secs

     total energy              =     -22.83783802 Ry
     estimated scf accuracy    <       0.00000011 Ry

     iteration #  7     ecut=    30.00 Ry     beta= 0.70
     Davidson diagonalization with overlap
     ethr =  1.38E-09,  avg # of iterations =  2.2

     total cpu time spent up to now is        1.2 secs

     total energy              =     -22.83783804 Ry
     estimated scf accuracy    <          6.1E-09 Ry

     iteration #  8     ecut=    30.00 Ry     beta= 0.70
     Davidson diagonalization with overlap
     ethr =  7.66E-11,  avg # of iterations =  4.6

     total cpu time spent up to now is        1.4 secs

     total energy              =     -22.83783804 Ry
     estimated scf accuracy    <          4.9E-10 Ry

     iteration #  9     ecut=    30.00 Ry     beta= 0.70
     Davidson diagonalization with overlap
     ethr =  6.13E-12,  avg # of iterations =  2.8

     total cpu time spent up to now is        1.5 secs

     End of self-consistent calculation

          k = 0.0000 0.0000 0.0000 (   749 PWs)   bands (ev):

    -5.7523   6.2124   6.2124   6.2124

          k = 0.1179 0.1179-0.1179 (   748 PWs)   bands (ev):

    -5.3911   3.8292   5.7611   5.7611

          k = 0.2357 0.2357-0.2357 (   757 PWs)   bands (ev):

    -4.3755   0.8746   5.2101   5.2101

          k =-0.3536-0.3536 0.3536 (   754 PWs)   bands (ev):

    -3.4206  -0.7615   5.0116   5.0116

          k = 0.2357 0.0000 0.0000 (   753 PWs)   bands (ev):

    -5.2682   4.1730   5.0172   5.0172

          k = 0.3536 0.1179-0.1179 (   750 PWs)   bands (ev):

    -4.4529   1.7733   4.2172   4.4636

          k =-0.2357-0.4714 0.4714 (   752 PWs)   bands (ev):

    -3.2613  -0.3970   3.4327   4.4334

          k =-0.1179-0.3536 0.3536 (   757 PWs)   bands (ev):

    -3.6464   0.2025   3.1619   4.9129

          k =-0.0000-0.2357 0.2357 (   748 PWs)   bands (ev):

    -4.8029   2.4927   3.7969   5.6464

          k = 0.4714 0.0000 0.0000 (   749 PWs)   bands (ev):

    -3.8481   1.1990   3.7915   3.7915

          k =-0.1179-0.5893 0.5893 (   749 PWs)   bands (ev):

    -2.6841  -0.3561   2.5767   3.6549

          k =-0.0000-0.4714 0.4714 (   740 PWs)   bands (ev):

    -2.4878  -0.5613   1.7956   4.0976

          k =-0.7071 0.0000 0.0000 (   740 PWs)   bands (ev):

    -1.6077  -1.6077   3.3566   3.3566

          k =-0.2357-0.4714 0.7071 (   748 PWs)   bands (ev):

    -3.4628   0.5656   2.6393   3.9146

          k =-0.1179-0.3536 0.5893 (   738 PWs)   bands (ev):

    -2.4778  -0.6343   2.1992   3.4476

          k =-0.7071 0.2357 0.0000 (   742 PWs)   bands (ev):

    -1.4877  -1.4877   2.5639   2.5639

     highest occupied level (ev):     6.2124

!    total energy              =     -22.83783804 Ry
     estimated scf accuracy    <          5.4E-11 Ry

     The total energy is the sum of the following terms:
     one-electron contribution =       5.16618162 Ry
     hartree contribution      =       1.10480485 Ry
     xc contribution           =     -12.31111818 Ry
     ewald contribution        =     -16.79770634 Ry

     convergence has been achieved in   9 iterations

     Writing all to output data dir ./out/si_e30_k6/si_e30_k6.save/ :
     XML data file, charge density, pseudopotentials, collected wavefunctions

     init_run     :      0.56s CPU      0.19s WALL (       1 calls)
     electrons    :      4.55s CPU      1.27s WALL (       1 calls)

     Called by init_run:
     wfcinit      :      0.08s CPU      0.02s WALL (       1 calls)
     potinit      :      0.04s CPU      0.01s WALL (       1 calls)
     hinit0       :      0.30s CPU      0.12s WALL (       1 calls)

     Called by electrons:
     c_bands      :      1.93s CPU      0.50s WALL (      10 calls)
     sum_band     :      1.26s CPU      0.38s WALL (      10 calls)
     v_of_rho     :      0.15s CPU      0.04s WALL (      10 calls)
     newd         :      1.32s CPU      0.39s WALL (      10 calls)
     mix_rho      :      0.02s CPU      0.01s WALL (      10 calls)

     Called by c_bands:
     init_us_2    :      0.10s CPU      0.02s WALL (     336 calls)
     cegterg      :      1.15s CPU      0.30s WALL (     160 calls)

     Called by *egterg:
     cdiaghg      :      0.08s CPU      0.01s WALL (     615 calls)
     h_psi        :      0.94s CPU      0.25s WALL (     647 calls)
     s_psi        :      0.02s CPU      0.01s WALL (     647 calls)
     g_psi        :      0.00s CPU      0.00s WALL (     471 calls)

     Called by h_psi:
     h_psi:calbec :      0.06s CPU      0.01s WALL (     647 calls)
     vloc_psi     :      0.84s CPU      0.23s WALL (     647 calls)
                                        0.00s GPU  (     647 calls)
     add_vuspsi   :      0.03s CPU      0.01s WALL (     647 calls)

     General routines
     calbec       :      0.06s CPU      0.01s WALL (     807 calls)
     fft          :      0.01s CPU      0.04s WALL (     129 calls)
     ffts         :      0.00s CPU      0.00s WALL (      20 calls)
     fftw         :      0.22s CPU      0.19s WALL (    4982 calls)
     interpolate  :      0.01s CPU      0.00s WALL (      10 calls)

     Parallel routines

     PWSCF        :      5.16s CPU      1.50s WALL


   This run was terminated on:  21:37:51   4Aug2026

=------------------------------------------------------------------------------=
   JOB DONE.
=------------------------------------------------------------------------------=
