
     Program PWSCF v.7.5 starts on  4Aug2026 at 20:44:32 

     This program is part of the open-source Quantum ESPRESSO suite
     for quantum simulation of materials; please cite
         "P. Giannozzi et al., J. Phys.:Condens. Matter 21 395502 (2009);
         "P. Giannozzi et al., J. Phys.:Condens. Matter 29 465901 (2017);
         "P. Giannozzi et al., J. Chem. Phys. 152 154105 (2020);
          URL http://www.quantum-espresso.org", 
     in publications or presentations arising from this work. More details at
     http://www.quantum-espresso.org/quote

     Parallel version (MPI & OpenMP), running on      32 processor cores
     Number of MPI processes:                 4
     Threads/MPI process:                     8

     MPI processes distributed on     1 nodes
     61973 MiB available memory on the printing compute node when the environment starts
 
     Reading input from scf.in

     Current dimensions of program PWSCF are:
     Max number of different atomic species (ntypx) = 10
     Max number of k-points (npk) =  40000
     Max angular momentum in pseudopotentials (lmaxx) =  4
     Message from routine setup:
     using ibrav=0 with symmetry is DISCOURAGED, use correct ibrav instead
 
     R & G space division:  proc/nbgrp/npool/nimage =       4
     Subspace diagonalization in iterative solution of the eigenvalue problem:
     a serial algorithm will be used

 
     Parallelization info
     --------------------
     sticks:   dense  smooth     PW     G-vecs:    dense   smooth      PW
     Min         289     145     46                 6555     2313     409
     Max         290     146     47                 6559     2316     411
     Sum        1159     583    187                26229     9257    1639
 
     Using Slab Decomposition
 


     bravais-lattice index     =            0
     lattice parameter (alat)  =       7.2563  a.u.
     unit-cell volume          =     270.1669 (a.u.)^3
     number of atoms/cell      =            2
     number of atomic types    =            1
     number of electrons       =         8.00
     number of Kohn-Sham states=            4
     kinetic-energy cutoff     =      40.0000  Ry
     charge density cutoff     =     320.0000  Ry
     scf convergence threshold =      1.0E-10
     mixing beta               =       0.7000
     number of iterations used =            8  plain     mixing
     Exchange-correlation= PBE
                           (   1   4   3   4   0   0   0)

     celldm(1)=   7.256308  celldm(2)=   0.000000  celldm(3)=   0.000000
     celldm(4)=   0.000000  celldm(5)=   0.000000  celldm(6)=   0.000000

     crystal axes: (cart. coord. in units of alat)
               a(1) = (   0.000000   0.707107   0.707107 )  
               a(2) = (   0.707107   0.000000   0.707107 )  
               a(3) = (   0.707107   0.707107   0.000000 )  

     reciprocal axes: (cart. coord. in units 2 pi/alat)
               b(1) = ( -0.707107  0.707107  0.707107 )  
               b(2) = (  0.707107 -0.707107  0.707107 )  
               b(3) = (  0.707107  0.707107 -0.707107 )  


     PseudoPot. # 1 for Si read from file:
     ./pseudo/Si.pbe-n-rrkjus_psl.1.0.0.UPF
     MD5 check sum: 0b0bb1205258b0d07b9f9672cf965d36
     Pseudo is Ultrasoft + core correction, Zval =  4.0
     Generated using "atomic" code by A. Dal Corso  v.5.1
     Using radial grid of 1141 points,  6 beta functions with: 
                l(1) =   0
                l(2) =   0
                l(3) =   1
                l(4) =   1
                l(5) =   2
                l(6) =   2
     Q(r) pseudized with 0 coefficients 


     atomic species   valence    mass     pseudopotential
     Si                4.00    28.08550     Si( 1.00)

     48 Sym. Ops., with inversion, found (24 have fractional translation)



   Cartesian axes

     site n.     atom                  positions (alat units)
         1        Si     tau(   1) = (   0.0000000   0.0000000   0.0000000  )
         2        Si     tau(   2) = (   0.3535534   0.3535534   0.3535534  )

     number of k points=    29
                       cart. coord. in units 2pi/alat
        k(    1) = (   0.0000000   0.0000000   0.0000000), wk =   0.0039062
        k(    2) = (   0.0883883   0.0883883  -0.0883883), wk =   0.0312500
        k(    3) = (   0.1767767   0.1767767  -0.1767767), wk =   0.0312500
        k(    4) = (   0.2651650   0.2651650  -0.2651650), wk =   0.0312500
        k(    5) = (  -0.3535534  -0.3535534   0.3535534), wk =   0.0156250
        k(    6) = (   0.1767767   0.0000000   0.0000000), wk =   0.0234375
        k(    7) = (   0.2651650   0.0883883  -0.0883883), wk =   0.0937500
        k(    8) = (   0.3535534   0.1767767  -0.1767767), wk =   0.0937500
        k(    9) = (  -0.2651650  -0.4419417   0.4419417), wk =   0.0937500
        k(   10) = (  -0.1767767  -0.3535534   0.3535534), wk =   0.0937500
        k(   11) = (  -0.0883883  -0.2651650   0.2651650), wk =   0.0937500
        k(   12) = (   0.0000000  -0.1767767   0.1767767), wk =   0.0468750
        k(   13) = (   0.3535534   0.0000000   0.0000000), wk =   0.0234375
        k(   14) = (   0.4419417   0.0883883  -0.0883883), wk =   0.0937500
        k(   15) = (  -0.1767767  -0.5303301   0.5303301), wk =   0.0937500
        k(   16) = (  -0.0883883  -0.4419417   0.4419417), wk =   0.0937500
        k(   17) = (   0.0000000  -0.3535534   0.3535534), wk =   0.0468750
        k(   18) = (   0.5303301   0.0000000   0.0000000), wk =   0.0234375
        k(   19) = (  -0.0883883  -0.6187184   0.6187184), wk =   0.0937500
        k(   20) = (   0.0000000  -0.5303301   0.5303301), wk =   0.0468750
        k(   21) = (  -0.7071068   0.0000000   0.0000000), wk =   0.0117188
        k(   22) = (   0.3535534   0.1767767   0.0000000), wk =   0.0937500
        k(   23) = (  -0.2651650  -0.4419417   0.6187184), wk =   0.1875000
        k(   24) = (  -0.1767767  -0.3535534   0.5303301), wk =   0.0937500
        k(   25) = (  -0.1767767  -0.5303301   0.7071068), wk =   0.0937500
        k(   26) = (  -0.0883883  -0.4419417   0.6187184), wk =   0.1875000
        k(   27) = (   0.0000000  -0.3535534   0.5303301), wk =   0.0937500
        k(   28) = (  -0.7071068   0.1767767   0.0000000), wk =   0.0468750
        k(   29) = (  -0.7071068   0.3535534   0.0000000), wk =   0.0234375

     Dense  grid:    26229 G-vectors     FFT dimensions: (  48,  48,  48)

     Smooth grid:     9257 G-vectors     FFT dimensions: (  32,  32,  32)

     Estimated max dynamical RAM per process >      26.83 MB

     Estimated total dynamical RAM >     107.32 MB

     Initial potential from superposition of free atoms

     starting charge       7.9989, renormalised to       8.0000
     Starting wfcs are    8 randomized atomic wfcs

     total cpu time spent up to now is        0.4 secs

     Self-consistent Calculation

     iteration #  1     ecut=    40.00 Ry     beta= 0.70
     Davidson diagonalization with overlap
     ethr =  1.00E-02,  avg # of iterations =  2.0

     Threshold (ethr) on eigenvalues was too large:
     Diagonalizing with lowered threshold

     Davidson diagonalization with overlap
     ethr =  6.22E-04,  avg # of iterations =  1.5

     total cpu time spent up to now is        0.7 secs

     total energy              =     -22.83679555 Ry
     estimated scf accuracy    <       0.05394208 Ry

     iteration #  2     ecut=    40.00 Ry     beta= 0.70
     Davidson diagonalization with overlap
     ethr =  6.74E-04,  avg # of iterations =  1.0

     total cpu time spent up to now is        0.8 secs

     total energy              =     -22.83856842 Ry
     estimated scf accuracy    <       0.00286590 Ry

     iteration #  3     ecut=    40.00 Ry     beta= 0.70
     Davidson diagonalization with overlap
     ethr =  3.58E-05,  avg # of iterations =  2.8

     total cpu time spent up to now is        1.0 secs

     total energy              =     -22.83936527 Ry
     estimated scf accuracy    <       0.00011226 Ry

     iteration #  4     ecut=    40.00 Ry     beta= 0.70
     Davidson diagonalization with overlap
     ethr =  1.40E-06,  avg # of iterations =  3.9

     total cpu time spent up to now is        1.2 secs

     total energy              =     -22.83943276 Ry
     estimated scf accuracy    <       0.00001902 Ry

     iteration #  5     ecut=    40.00 Ry     beta= 0.70
     Davidson diagonalization with overlap
     ethr =  2.38E-07,  avg # of iterations =  3.0

     total cpu time spent up to now is        1.4 secs

     total energy              =     -22.83943899 Ry
     estimated scf accuracy    <       0.00000039 Ry

     iteration #  6     ecut=    40.00 Ry     beta= 0.70
     Davidson diagonalization with overlap
     ethr =  4.89E-09,  avg # of iterations =  6.0

     total cpu time spent up to now is        1.5 secs

     total energy              =     -22.83943946 Ry
     estimated scf accuracy    <       0.00000024 Ry

     iteration #  7     ecut=    40.00 Ry     beta= 0.70
     Davidson diagonalization with overlap
     ethr =  3.03E-09,  avg # of iterations =  2.1

     total cpu time spent up to now is        1.7 secs

     total energy              =     -22.83943949 Ry
     estimated scf accuracy    <       0.00000001 Ry

     iteration #  8     ecut=    40.00 Ry     beta= 0.70
     Davidson diagonalization with overlap
     ethr =  1.56E-10,  avg # of iterations =  3.4

     total cpu time spent up to now is        1.9 secs

     total energy              =     -22.83943950 Ry
     estimated scf accuracy    <          6.6E-10 Ry

     iteration #  9     ecut=    40.00 Ry     beta= 0.70
     Davidson diagonalization with overlap
     ethr =  8.30E-12,  avg # of iterations =  3.7

     total cpu time spent up to now is        2.0 secs

     End of self-consistent calculation

          k = 0.0000 0.0000 0.0000 (  1139 PWs)   bands (ev):

    -5.7578   6.2054   6.2054   6.2054

          k = 0.0884 0.0884-0.0884 (  1173 PWs)   bands (ev):

    -5.5537   4.6056   5.9160   5.9160

          k = 0.1768 0.1768-0.1768 (  1164 PWs)   bands (ev):

    -4.9582   2.2766   5.4448   5.4448

          k = 0.2652 0.2652-0.2652 (  1155 PWs)   bands (ev):

    -4.0645   0.2560   5.1175   5.1175

          k =-0.3536-0.3536 0.3536 (  1158 PWs)   bands (ev):

    -3.4266  -0.7666   5.0055   5.0055

          k = 0.1768 0.0000 0.0000 (  1163 PWs)   bands (ev):

    -5.4850   4.8708   5.3978   5.3978

          k = 0.2652 0.0884-0.0884 (  1160 PWs)   bands (ev):

    -5.0163   2.9797   4.8857   4.9620

          k = 0.3536 0.1768-0.1768 (  1151 PWs)   bands (ev):

    -4.2015   0.9186   4.3702   4.6174

          k =-0.2652-0.4419 0.4419 (  1160 PWs)   bands (ev):

    -3.3400  -0.5452   3.9243   4.6419

          k =-0.1768-0.3536 0.3536 (  1151 PWs)   bands (ev):

    -3.5846  -0.1744   3.7425   4.9386

          k =-0.0884-0.2652 0.2652 (  1151 PWs)   bands (ev):

    -4.5078   1.5780   3.8934   5.4305

          k = 0.0000-0.1768 0.1768 (  1159 PWs)   bands (ev):

    -5.2176   3.5201   4.5758   5.9121

          k = 0.3536 0.0000 0.0000 (  1174 PWs)   bands (ev):

    -4.6760   2.6868   4.3141   4.3141

          k = 0.4419 0.0884-0.0884 (  1157 PWs)   bands (ev):

    -3.9661   1.2627   3.5334   3.9957

          k =-0.1768-0.5303 0.5303 (  1156 PWs)   bands (ev):

    -3.0400  -0.1795   2.6698   3.9988

          k =-0.0884-0.4419 0.4419 (  1150 PWs)   bands (ev):

    -2.8357  -0.4380   2.2111   4.3175

          k = 0.0000-0.3536 0.3536 (  1159 PWs)   bands (ev):

    -3.7143   0.7231   2.4513   4.8763

          k = 0.5303 0.0000 0.0000 (  1150 PWs)   bands (ev):

    -3.3636   0.4581   3.5971   3.5971

          k =-0.0884-0.6187 0.6187 (  1150 PWs)   bands (ev):

    -2.4663  -0.6270   2.7681   3.5209

          k = 0.0000-0.5303 0.5303 (  1144 PWs)   bands (ev):

    -2.0275  -1.0237   1.9020   3.7786

          k =-0.7071 0.0000 0.0000 (  1162 PWs)   bands (ev):

    -1.6137  -1.6137   3.3513   3.3513

          k = 0.3536 0.1768 0.0000 (  1153 PWs)   bands (ev):

    -4.4286   1.9141   3.4911   4.7766

          k =-0.2652-0.4419 0.6187 (  1150 PWs)   bands (ev):

    -3.5403   0.3618   2.8830   4.2749

          k =-0.1768-0.3536 0.5303 (  1154 PWs)   bands (ev):

    -2.8879  -0.5834   2.7541   4.0451

          k =-0.1768-0.5303 0.7071 (  1171 PWs)   bands (ev):

    -3.1650   0.2391   2.8417   3.4448

          k =-0.0884-0.4419 0.6187 (  1157 PWs)   bands (ev):

    -2.2902  -0.7290   2.1435   3.2440

          k = 0.0000-0.3536 0.5303 (  1153 PWs)   bands (ev):

    -2.6408  -0.3657   1.9766   3.6201

          k =-0.7071 0.1768 0.0000 (  1156 PWs)   bands (ev):

    -1.5357  -1.5357   2.7872   2.7872

          k =-0.7071 0.3536 0.0000 (  1144 PWs)   bands (ev):

    -1.4498  -1.4498   2.3513   2.3513

     highest occupied level (ev):     6.2054

!    total energy              =     -22.83943950 Ry
     estimated scf accuracy    <          9.0E-11 Ry

     The total energy is the sum of the following terms:
     one-electron contribution =       5.16650074 Ry
     hartree contribution      =       1.10124188 Ry
     xc contribution           =     -12.30947579 Ry
     ewald contribution        =     -16.79770633 Ry

     convergence has been achieved in   9 iterations

     Forces acting on atoms (cartesian axes, Ry/au):

     atom    1 type  1   force =     0.00000000    0.00000000    0.00000000
     atom    2 type  1   force =     0.00000000    0.00000000    0.00000000

     Total force =     0.000000     Total SCF correction =     0.000000


     Computing stress (Cartesian axis) and pressure

          total   stress  (Ry/bohr**3)                   (kbar)     P=       19.99
   0.00013589  -0.00000000   0.00000000           19.99       -0.00        0.00
   0.00000000   0.00013589  -0.00000000            0.00       19.99       -0.00
  -0.00000000   0.00000000   0.00013589           -0.00        0.00       19.99


     Writing all to output data dir ./out/si_cod9013102.save/ :
     XML data file, charge density, pseudopotentials, collected wavefunctions
 
     init_run     :      2.08s CPU      0.33s WALL (       1 calls)
     electrons    :     11.85s CPU      1.63s WALL (       1 calls)
     forces       :      0.28s CPU      0.04s WALL (       1 calls)
     stress       :      0.88s CPU      0.12s WALL (       1 calls)

     Called by init_run:
     wfcinit      :      0.86s CPU      0.12s WALL (       1 calls)
     potinit      :      0.17s CPU      0.03s WALL (       1 calls)
     hinit0       :      0.74s CPU      0.11s WALL (       1 calls)

     Called by electrons:
     c_bands      :      7.08s CPU      0.96s WALL (      10 calls)
     sum_band     :      2.60s CPU      0.36s WALL (      10 calls)
     v_of_rho     :      0.38s CPU      0.05s WALL (      10 calls)
     newd         :      1.72s CPU      0.24s WALL (      10 calls)
     mix_rho      :      0.15s CPU      0.02s WALL (      10 calls)

     Called by c_bands:
     init_us_2    :      0.22s CPU      0.03s WALL (     667 calls)
     cegterg      :      5.79s CPU      0.79s WALL (     290 calls)

     Called by *egterg:
     cdiaghg      :      0.70s CPU      0.10s WALL (    1113 calls)
     h_psi        :      5.02s CPU      0.67s WALL (    1171 calls)
     s_psi        :      0.14s CPU      0.02s WALL (    1171 calls)
     g_psi        :      0.00s CPU      0.00s WALL (     852 calls)

     Called by h_psi:
     h_psi:calbec :      0.31s CPU      0.04s WALL (    1171 calls)
     vloc_psi     :      4.49s CPU      0.60s WALL (    1171 calls)
                                        0.00s GPU  (    1171 calls)
     add_vuspsi   :      0.15s CPU      0.02s WALL (    1171 calls)

     General routines
     calbec       :      0.41s CPU      0.06s WALL (    1954 calls)
     fft          :      0.68s CPU      0.10s WALL (     154 calls)
     ffts         :      0.04s CPU      0.01s WALL (      20 calls)
     fftw         :      4.61s CPU      0.60s WALL (    8926 calls)
     interpolate  :      0.06s CPU      0.01s WALL (      10 calls)
 
     Parallel routines
 
     PWSCF        :     15.28s CPU      2.24s WALL

 
   This run was terminated on:  20:44:34   4Aug2026            

=------------------------------------------------------------------------------=
   JOB DONE.
=------------------------------------------------------------------------------=
