
     Program PWSCF v.7.5 starts on  5Aug2026 at  4:22: 0 

     This program is part of the open-source Quantum ESPRESSO suite
     for quantum simulation of materials; please cite
         "P. Giannozzi et al., J. Phys.:Condens. Matter 21 395502 (2009);
         "P. Giannozzi et al., J. Phys.:Condens. Matter 29 465901 (2017);
         "P. Giannozzi et al., J. Chem. Phys. 152 154105 (2020);
          URL http://www.quantum-espresso.org", 
     in publications or presentations arising from this work. More details at
     http://www.quantum-espresso.org/quote

     Parallel version (MPI), running on     1 processors

     MPI processes distributed on     1 nodes
     6387 MiB available memory on the printing compute node when the environment starts

     Reading input from bands.in

     Current dimensions of program PWSCF are:
     Max number of different atomic species (ntypx) = 10
     Max number of k-points (npk) =  40000
     Max angular momentum in pseudopotentials (lmaxx) =  4

     Atomic positions and unit cell read from directory:
     ./tmp/al.save/


     Subspace diagonalization in iterative solution of the eigenvalue problem:
     a serial algorithm will be used


     G-vector sticks info
     --------------------
     sticks:   dense  smooth     PW     G-vecs:    dense   smooth      PW
     Sum         499     241     85                 7119     2445     531

     Using Slab Decomposition



     bravais-lattice index     =            2
     lattice parameter (alat)  =       7.6530  a.u.
     unit-cell volume          =     112.0560 (a.u.)^3
     number of atoms/cell      =            1
     number of atomic types    =            1
     number of electrons       =         3.00
     number of Kohn-Sham states=            4
     kinetic-energy cutoff     =      30.0000  Ry
     charge density cutoff     =     240.0000  Ry
     Exchange-correlation= PBE
                           (   1   4   3   4   0   0   0)

     celldm(1)=   7.653000  celldm(2)=   0.000000  celldm(3)=   0.000000
     celldm(4)=   0.000000  celldm(5)=   0.000000  celldm(6)=   0.000000

     crystal axes: (cart. coord. in units of alat)
               a(1) = (  -0.500000   0.000000   0.500000 )  
               a(2) = (   0.000000   0.500000   0.500000 )  
               a(3) = (  -0.500000   0.500000   0.000000 )  

     reciprocal axes: (cart. coord. in units 2 pi/alat)
               b(1) = ( -1.000000 -1.000000  1.000000 )  
               b(2) = (  1.000000  1.000000  1.000000 )  
               b(3) = ( -1.000000  1.000000 -1.000000 )  


     PseudoPot. # 1 for Al read from file:
     ./pseudo/Al.pbe-n-rrkjus_psl.1.0.0.UPF
     MD5 check sum: bbe9f3f15d9b3b5ab9a58e4859ebdbfe
     Pseudo is Ultrasoft + core correction, Zval =  3.0
     Generated using &quot;atomic&quot; code by A. Dal Corso  v.6.3
     Using radial grid of 1135 points,  6 beta functions with: 
                l(1) =   0
                l(2) =   0
                l(3) =   1
                l(4) =   1
                l(5) =   2
                l(6) =   2
     Q(r) pseudized with 0 coefficients 


     atomic species   valence    mass     pseudopotential
     Al                3.00    26.98154     Al( 1.00)

     48 Sym. Ops., with inversion, found


                                    s                        frac. trans.

      isym =  1     identity                                     

 cryst.   s( 1) = (     1          0          0      )
                  (     0          1          0      )
                  (     0          0          1      )

 cart.    s( 1) = (  1.0000000  0.0000000  0.0000000 )
                  (  0.0000000  1.0000000  0.0000000 )
                  (  0.0000000  0.0000000  1.0000000 )


      isym =  2     180 deg rotation - cart. axis [0,0,1]        

 cryst.   s( 2) = (     0          1         -1      )
                  (     1          0         -1      )
                  (     0          0         -1      )

 cart.    s( 2) = ( -1.0000000  0.0000000  0.0000000 )
                  (  0.0000000 -1.0000000  0.0000000 )
                  (  0.0000000  0.0000000  1.0000000 )


      isym =  3     180 deg rotation - cart. axis [0,1,0]        

 cryst.   s( 3) = (    -1          0          0      )
                  (    -1          0          1      )
                  (    -1          1          0      )

 cart.    s( 3) = ( -1.0000000  0.0000000  0.0000000 )
                  (  0.0000000  1.0000000  0.0000000 )
                  (  0.0000000  0.0000000 -1.0000000 )


      isym =  4     180 deg rotation - cart. axis [1,0,0]        

 cryst.   s( 4) = (     0         -1          1      )
                  (     0         -1          0      )
                  (     1         -1          0      )

 cart.    s( 4) = (  1.0000000  0.0000000  0.0000000 )
                  (  0.0000000 -1.0000000  0.0000000 )
                  (  0.0000000  0.0000000 -1.0000000 )


      isym =  5     180 deg rotation - cart. axis [1,1,0]        

 cryst.   s( 5) = (     0         -1          0      )
                  (    -1          0          0      )
                  (     0          0         -1      )

 cart.    s( 5) = (  0.0000000  1.0000000  0.0000000 )
                  (  1.0000000  0.0000000  0.0000000 )
                  (  0.0000000  0.0000000 -1.0000000 )


      isym =  6     180 deg rotation - cart. axis [1,-1,0]       

 cryst.   s( 6) = (    -1          0          1      )
                  (     0         -1          1      )
                  (     0          0          1      )

 cart.    s( 6) = (  0.0000000 -1.0000000  0.0000000 )
                  ( -1.0000000  0.0000000  0.0000000 )
                  (  0.0000000  0.0000000 -1.0000000 )


      isym =  7      90 deg rotation - cart. axis [0,0,-1]       

 cryst.   s( 7) = (     0          1          0      )
                  (     0          1         -1      )
                  (    -1          1          0      )

 cart.    s( 7) = (  0.0000000  1.0000000  0.0000000 )
                  ( -1.0000000  0.0000000  0.0000000 )
                  (  0.0000000  0.0000000  1.0000000 )


      isym =  8      90 deg rotation - cart. axis [0,0,1]        

 cryst.   s( 8) = (     1          0         -1      )
                  (     1          0          0      )
                  (     1         -1          0      )

 cart.    s( 8) = (  0.0000000 -1.0000000  0.0000000 )
                  (  1.0000000  0.0000000  0.0000000 )
                  (  0.0000000  0.0000000  1.0000000 )


      isym =  9     180 deg rotation - cart. axis [1,0,1]        

 cryst.   s( 9) = (    -1          0          0      )
                  (     0          0         -1      )
                  (     0         -1          0      )

 cart.    s( 9) = (  0.0000000  0.0000000  1.0000000 )
                  (  0.0000000 -1.0000000  0.0000000 )
                  (  1.0000000  0.0000000  0.0000000 )


      isym = 10     180 deg rotation - cart. axis [-1,0,1]       

 cryst.   s(10) = (     1          0          0      )
                  (     1         -1          0      )
                  (     1          0         -1      )

 cart.    s(10) = (  0.0000000  0.0000000 -1.0000000 )
                  (  0.0000000 -1.0000000  0.0000000 )
                  ( -1.0000000  0.0000000  0.0000000 )


      isym = 11      90 deg rotation - cart. axis [0,1,0]        

 cryst.   s(11) = (     0          1         -1      )
                  (    -1          1          0      )
                  (     0          1          0      )

 cart.    s(11) = (  0.0000000  0.0000000  1.0000000 )
                  (  0.0000000  1.0000000  0.0000000 )
                  ( -1.0000000  0.0000000  0.0000000 )


      isym = 12      90 deg rotation - cart. axis [0,-1,0]       

 cryst.   s(12) = (     0         -1          1      )
                  (     0          0          1      )
                  (    -1          0          1      )

 cart.    s(12) = (  0.0000000  0.0000000 -1.0000000 )
                  (  0.0000000  1.0000000  0.0000000 )
                  (  1.0000000  0.0000000  0.0000000 )


      isym = 13     180 deg rotation - cart. axis [0,1,1]        

 cryst.   s(13) = (    -1          1          0      )
                  (     0          1          0      )
                  (     0          1         -1      )

 cart.    s(13) = ( -1.0000000  0.0000000  0.0000000 )
                  (  0.0000000  0.0000000  1.0000000 )
                  (  0.0000000  1.0000000  0.0000000 )


      isym = 14     180 deg rotation - cart. axis [0,1,-1]       

 cryst.   s(14) = (     0          0         -1      )
                  (     0         -1          0      )
                  (    -1          0          0      )

 cart.    s(14) = ( -1.0000000  0.0000000  0.0000000 )
                  (  0.0000000  0.0000000 -1.0000000 )
                  (  0.0000000 -1.0000000  0.0000000 )


      isym = 15      90 deg rotation - cart. axis [-1,0,0]       

 cryst.   s(15) = (     0          0          1      )
                  (    -1          0          1      )
                  (     0         -1          1      )

 cart.    s(15) = (  1.0000000  0.0000000  0.0000000 )
                  (  0.0000000  0.0000000  1.0000000 )
                  (  0.0000000 -1.0000000  0.0000000 )


      isym = 16      90 deg rotation - cart. axis [1,0,0]        

 cryst.   s(16) = (     1         -1          0      )
                  (     1          0         -1      )
                  (     1          0          0      )

 cart.    s(16) = (  1.0000000  0.0000000  0.0000000 )
                  (  0.0000000  0.0000000 -1.0000000 )
                  (  0.0000000  1.0000000  0.0000000 )


      isym = 17     120 deg rotation - cart. axis [-1,-1,-1]     

 cryst.   s(17) = (    -1          0          1      )
                  (    -1          1          0      )
                  (    -1          0          0      )

 cart.    s(17) = (  0.0000000  1.0000000  0.0000000 )
                  (  0.0000000  0.0000000  1.0000000 )
                  (  1.0000000  0.0000000  0.0000000 )


      isym = 18     120 deg rotation - cart. axis [-1,1,1]       

 cryst.   s(18) = (     0          1          0      )
                  (     0          0          1      )
                  (     1          0          0      )

 cart.    s(18) = (  0.0000000 -1.0000000  0.0000000 )
                  (  0.0000000  0.0000000  1.0000000 )
                  ( -1.0000000  0.0000000  0.0000000 )


      isym = 19     120 deg rotation - cart. axis [1,1,-1]       

 cryst.   s(19) = (     1          0         -1      )
                  (     0          0         -1      )
                  (     0          1         -1      )

 cart.    s(19) = (  0.0000000  1.0000000  0.0000000 )
                  (  0.0000000  0.0000000 -1.0000000 )
                  ( -1.0000000  0.0000000  0.0000000 )


      isym = 20     120 deg rotation - cart. axis [1,-1,1]       

 cryst.   s(20) = (     0         -1          0      )
                  (     1         -1          0      )
                  (     0         -1          1      )

 cart.    s(20) = (  0.0000000 -1.0000000  0.0000000 )
                  (  0.0000000  0.0000000 -1.0000000 )
                  (  1.0000000  0.0000000  0.0000000 )


      isym = 21     120 deg rotation - cart. axis [1,1,1]        

 cryst.   s(21) = (     0          0         -1      )
                  (     0          1         -1      )
                  (     1          0         -1      )

 cart.    s(21) = (  0.0000000  0.0000000  1.0000000 )
                  (  1.0000000  0.0000000  0.0000000 )
                  (  0.0000000  1.0000000  0.0000000 )


      isym = 22     120 deg rotation - cart. axis [-1,1,-1]      

 cryst.   s(22) = (    -1          1          0      )
                  (    -1          0          0      )
                  (    -1          0          1      )

 cart.    s(22) = (  0.0000000  0.0000000  1.0000000 )
                  ( -1.0000000  0.0000000  0.0000000 )
                  (  0.0000000 -1.0000000  0.0000000 )


      isym = 23     120 deg rotation - cart. axis [1,-1,-1]      

 cryst.   s(23) = (     0          0          1      )
                  (     1          0          0      )
                  (     0          1          0      )

 cart.    s(23) = (  0.0000000  0.0000000 -1.0000000 )
                  ( -1.0000000  0.0000000  0.0000000 )
                  (  0.0000000  1.0000000  0.0000000 )


      isym = 24     120 deg rotation - cart. axis [-1,-1,1]      

 cryst.   s(24) = (     1         -1          0      )
                  (     0         -1          1      )
                  (     0         -1          0      )

 cart.    s(24) = (  0.0000000  0.0000000 -1.0000000 )
                  (  1.0000000  0.0000000  0.0000000 )
                  (  0.0000000 -1.0000000  0.0000000 )


      isym = 25     inversion                                    

 cryst.   s(25) = (    -1          0          0      )
                  (     0         -1          0      )
                  (     0          0         -1      )

 cart.    s(25) = ( -1.0000000  0.0000000  0.0000000 )
                  (  0.0000000 -1.0000000  0.0000000 )
                  (  0.0000000  0.0000000 -1.0000000 )


      isym = 26     inv. 180 deg rotation - cart. axis [0,0,1]   

 cryst.   s(26) = (     0         -1          1      )
                  (    -1          0          1      )
                  (     0          0          1      )

 cart.    s(26) = (  1.0000000  0.0000000  0.0000000 )
                  (  0.0000000  1.0000000  0.0000000 )
                  (  0.0000000  0.0000000 -1.0000000 )


      isym = 27     inv. 180 deg rotation - cart. axis [0,1,0]   

 cryst.   s(27) = (     1          0          0      )
                  (     1          0         -1      )
                  (     1         -1          0      )

 cart.    s(27) = (  1.0000000  0.0000000  0.0000000 )
                  (  0.0000000 -1.0000000  0.0000000 )
                  (  0.0000000  0.0000000  1.0000000 )


      isym = 28     inv. 180 deg rotation - cart. axis [1,0,0]   

 cryst.   s(28) = (     0          1         -1      )
                  (     0          1          0      )
                  (    -1          1          0      )

 cart.    s(28) = ( -1.0000000  0.0000000  0.0000000 )
                  (  0.0000000  1.0000000  0.0000000 )
                  (  0.0000000  0.0000000  1.0000000 )


      isym = 29     inv. 180 deg rotation - cart. axis [1,1,0]   

 cryst.   s(29) = (     0          1          0      )
                  (     1          0          0      )
                  (     0          0          1      )

 cart.    s(29) = (  0.0000000 -1.0000000  0.0000000 )
                  ( -1.0000000  0.0000000  0.0000000 )
                  (  0.0000000  0.0000000  1.0000000 )


      isym = 30     inv. 180 deg rotation - cart. axis [1,-1,0]  

 cryst.   s(30) = (     1          0         -1      )
                  (     0          1         -1      )
                  (     0          0         -1      )

 cart.    s(30) = (  0.0000000  1.0000000  0.0000000 )
                  (  1.0000000  0.0000000  0.0000000 )
                  (  0.0000000  0.0000000  1.0000000 )


      isym = 31     inv.  90 deg rotation - cart. axis [0,0,-1]  

 cryst.   s(31) = (     0         -1          0      )
                  (     0         -1          1      )
                  (     1         -1          0      )

 cart.    s(31) = (  0.0000000 -1.0000000  0.0000000 )
                  (  1.0000000  0.0000000  0.0000000 )
                  (  0.0000000  0.0000000 -1.0000000 )


      isym = 32     inv.  90 deg rotation - cart. axis [0,0,1]   

 cryst.   s(32) = (    -1          0          1      )
                  (    -1          0          0      )
                  (    -1          1          0      )

 cart.    s(32) = (  0.0000000  1.0000000  0.0000000 )
                  ( -1.0000000  0.0000000  0.0000000 )
                  (  0.0000000  0.0000000 -1.0000000 )


      isym = 33     inv. 180 deg rotation - cart. axis [1,0,1]   

 cryst.   s(33) = (     1          0          0      )
                  (     0          0          1      )
                  (     0          1          0      )

 cart.    s(33) = (  0.0000000  0.0000000 -1.0000000 )
                  (  0.0000000  1.0000000  0.0000000 )
                  ( -1.0000000  0.0000000  0.0000000 )


      isym = 34     inv. 180 deg rotation - cart. axis [-1,0,1]  

 cryst.   s(34) = (    -1          0          0      )
                  (    -1          1          0      )
                  (    -1          0          1      )

 cart.    s(34) = (  0.0000000  0.0000000  1.0000000 )
                  (  0.0000000  1.0000000  0.0000000 )
                  (  1.0000000  0.0000000  0.0000000 )


      isym = 35     inv.  90 deg rotation - cart. axis [0,1,0]   

 cryst.   s(35) = (     0         -1          1      )
                  (     1         -1          0      )
                  (     0         -1          0      )

 cart.    s(35) = (  0.0000000  0.0000000 -1.0000000 )
                  (  0.0000000 -1.0000000  0.0000000 )
                  (  1.0000000  0.0000000  0.0000000 )


      isym = 36     inv.  90 deg rotation - cart. axis [0,-1,0]  

 cryst.   s(36) = (     0          1         -1      )
                  (     0          0         -1      )
                  (     1          0         -1      )

 cart.    s(36) = (  0.0000000  0.0000000  1.0000000 )
                  (  0.0000000 -1.0000000  0.0000000 )
                  ( -1.0000000  0.0000000  0.0000000 )


      isym = 37     inv. 180 deg rotation - cart. axis [0,1,1]   

 cryst.   s(37) = (     1         -1          0      )
                  (     0         -1          0      )
                  (     0         -1          1      )

 cart.    s(37) = (  1.0000000  0.0000000  0.0000000 )
                  (  0.0000000  0.0000000 -1.0000000 )
                  (  0.0000000 -1.0000000  0.0000000 )


      isym = 38     inv. 180 deg rotation - cart. axis [0,1,-1]  

 cryst.   s(38) = (     0          0          1      )
                  (     0          1          0      )
                  (     1          0          0      )

 cart.    s(38) = (  1.0000000  0.0000000  0.0000000 )
                  (  0.0000000  0.0000000  1.0000000 )
                  (  0.0000000  1.0000000  0.0000000 )


      isym = 39     inv.  90 deg rotation - cart. axis [-1,0,0]  

 cryst.   s(39) = (     0          0         -1      )
                  (     1          0         -1      )
                  (     0          1         -1      )

 cart.    s(39) = ( -1.0000000  0.0000000  0.0000000 )
                  (  0.0000000  0.0000000 -1.0000000 )
                  (  0.0000000  1.0000000  0.0000000 )


      isym = 40     inv.  90 deg rotation - cart. axis [1,0,0]   

 cryst.   s(40) = (    -1          1          0      )
                  (    -1          0          1      )
                  (    -1          0          0      )

 cart.    s(40) = ( -1.0000000  0.0000000  0.0000000 )
                  (  0.0000000  0.0000000  1.0000000 )
                  (  0.0000000 -1.0000000  0.0000000 )


      isym = 41     inv. 120 deg rotation - cart. axis [-1,-1,-1]

 cryst.   s(41) = (     1          0         -1      )
                  (     1         -1          0      )
                  (     1          0          0      )

 cart.    s(41) = (  0.0000000 -1.0000000  0.0000000 )
                  (  0.0000000  0.0000000 -1.0000000 )
                  ( -1.0000000  0.0000000  0.0000000 )


      isym = 42     inv. 120 deg rotation - cart. axis [-1,1,1]  

 cryst.   s(42) = (     0         -1          0      )
                  (     0          0         -1      )
                  (    -1          0          0      )

 cart.    s(42) = (  0.0000000  1.0000000  0.0000000 )
                  (  0.0000000  0.0000000 -1.0000000 )
                  (  1.0000000  0.0000000  0.0000000 )


      isym = 43     inv. 120 deg rotation - cart. axis [1,1,-1]  

 cryst.   s(43) = (    -1          0          1      )
                  (     0          0          1      )
                  (     0         -1          1      )

 cart.    s(43) = (  0.0000000 -1.0000000  0.0000000 )
                  (  0.0000000  0.0000000  1.0000000 )
                  (  1.0000000  0.0000000  0.0000000 )


      isym = 44     inv. 120 deg rotation - cart. axis [1,-1,1]  

 cryst.   s(44) = (     0          1          0      )
                  (    -1          1          0      )
                  (     0          1         -1      )

 cart.    s(44) = (  0.0000000  1.0000000  0.0000000 )
                  (  0.0000000  0.0000000  1.0000000 )
                  ( -1.0000000  0.0000000  0.0000000 )


      isym = 45     inv. 120 deg rotation - cart. axis [1,1,1]   

 cryst.   s(45) = (     0          0          1      )
                  (     0         -1          1      )
                  (    -1          0          1      )

 cart.    s(45) = (  0.0000000  0.0000000 -1.0000000 )
                  ( -1.0000000  0.0000000  0.0000000 )
                  (  0.0000000 -1.0000000  0.0000000 )


      isym = 46     inv. 120 deg rotation - cart. axis [-1,1,-1] 

 cryst.   s(46) = (     1         -1          0      )
                  (     1          0          0      )
                  (     1          0         -1      )

 cart.    s(46) = (  0.0000000  0.0000000 -1.0000000 )
                  (  1.0000000  0.0000000  0.0000000 )
                  (  0.0000000  1.0000000  0.0000000 )


      isym = 47     inv. 120 deg rotation - cart. axis [1,-1,-1] 

 cryst.   s(47) = (     0          0         -1      )
                  (    -1          0          0      )
                  (     0         -1          0      )

 cart.    s(47) = (  0.0000000  0.0000000  1.0000000 )
                  (  1.0000000  0.0000000  0.0000000 )
                  (  0.0000000 -1.0000000  0.0000000 )


      isym = 48     inv. 120 deg rotation - cart. axis [-1,-1,1] 

 cryst.   s(48) = (    -1          1          0      )
                  (     0          1         -1      )
                  (     0          1          0      )

 cart.    s(48) = (  0.0000000  0.0000000  1.0000000 )
                  ( -1.0000000  0.0000000  0.0000000 )
                  (  0.0000000  1.0000000  0.0000000 )


     point group O_h (m-3m) 
     there are 10 classes
     the character table:

       E     8C3   3C2   6C4   6C2'  i     8S6   3s_h  6S4   6s_d 
A_1g   1.00  1.00  1.00  1.00  1.00  1.00  1.00  1.00  1.00  1.00
A_2g   1.00  1.00  1.00 -1.00 -1.00  1.00  1.00  1.00 -1.00 -1.00
E_g    2.00 -1.00  2.00  0.00  0.00  2.00 -1.00  2.00  0.00  0.00
T_1g   3.00  0.00 -1.00  1.00 -1.00  3.00  0.00 -1.00  1.00 -1.00
T_2g   3.00  0.00 -1.00 -1.00  1.00  3.00  0.00 -1.00 -1.00  1.00
A_1u   1.00  1.00  1.00  1.00  1.00 -1.00 -1.00 -1.00 -1.00 -1.00
A_2u   1.00  1.00  1.00 -1.00 -1.00 -1.00 -1.00 -1.00  1.00  1.00
E_u    2.00 -1.00  2.00  0.00  0.00 -2.00  1.00 -2.00  0.00  0.00
T_1u   3.00  0.00 -1.00  1.00 -1.00 -3.00  0.00  1.00 -1.00  1.00
T_2u   3.00  0.00 -1.00 -1.00  1.00 -3.00  0.00  1.00  1.00 -1.00

     the symmetry operations in each class and the name of the first element:

     E        1
          identity                                               
     8C3     17   19   20   18   24   21   22   23
          120 deg rotation - cart. axis [-1,-1,-1]               
     3C2      2    4    3
          180 deg rotation - cart. axis [0,0,1]                  
     6C4      7    8   15   16   12   11
           90 deg rotation - cart. axis [0,0,-1]                 
     6C2'     5    6   14   13   10    9
          180 deg rotation - cart. axis [1,1,0]                  
     i       25
          inversion                                              
     8S6     41   43   44   42   48   45   46   47
          inv. 120 deg rotation - cart. axis [-1,-1,-1]          
     3s_h    26   28   27
          inv. 180 deg rotation - cart. axis [0,0,1]             
     6S4     31   32   39   40   36   35
          inv.  90 deg rotation - cart. axis [0,0,-1]            
     6s_d    29   30   38   37   34   33
          inv. 180 deg rotation - cart. axis [1,1,0]             

   Cartesian axes

     site n.     atom                  positions (alat units)
         1        Al     tau(   1) = (   0.0000000   0.0000000   0.0000000  )

   Crystallographic axes

     site n.     atom                  positions (cryst. coord.)
         1        Al     tau(   1) = (  0.0000000  0.0000000  0.0000000  )

     number of k points=   145  Marzari-Vanderbilt smearing, width (Ry)=  0.0200
                       cart. coord. in units 2pi/alat
        k(    1) = (   0.0000000   0.0000000   0.0000000), wk =   0.0137931
        k(    2) = (  -0.0625000   0.0000000   0.0000000), wk =   0.0137931
        k(    3) = (  -0.1250000   0.0000000   0.0000000), wk =   0.0137931
        k(    4) = (  -0.1875000   0.0000000   0.0000000), wk =   0.0137931
        k(    5) = (  -0.2500000   0.0000000   0.0000000), wk =   0.0137931
        k(    6) = (  -0.3125000   0.0000000   0.0000000), wk =   0.0137931
        k(    7) = (  -0.3750000   0.0000000   0.0000000), wk =   0.0137931
        k(    8) = (  -0.4375000   0.0000000   0.0000000), wk =   0.0137931
        k(    9) = (  -0.5000000   0.0000000   0.0000000), wk =   0.0137931
        k(   10) = (  -0.5625000   0.0000000   0.0000000), wk =   0.0137931
        k(   11) = (  -0.6250000   0.0000000   0.0000000), wk =   0.0137931
        k(   12) = (  -0.6875000   0.0000000   0.0000000), wk =   0.0137931
        k(   13) = (  -0.7500000   0.0000000   0.0000000), wk =   0.0137931
        k(   14) = (  -0.8125000   0.0000000   0.0000000), wk =   0.0137931
        k(   15) = (  -0.8750000   0.0000000   0.0000000), wk =   0.0137931
        k(   16) = (  -0.9375000   0.0000000   0.0000000), wk =   0.0137931
        k(   17) = (  -1.0000000   0.0000000   0.0000000), wk =   0.0137931
        k(   18) = (  -1.0000000   0.0312500   0.0000000), wk =   0.0137931
        k(   19) = (  -1.0000000   0.0625000   0.0000000), wk =   0.0137931
        k(   20) = (  -1.0000000   0.0937500   0.0000000), wk =   0.0137931
        k(   21) = (  -1.0000000   0.1250000   0.0000000), wk =   0.0137931
        k(   22) = (  -1.0000000   0.1562500   0.0000000), wk =   0.0137931
        k(   23) = (  -1.0000000   0.1875000   0.0000000), wk =   0.0137931
        k(   24) = (  -1.0000000   0.2187500   0.0000000), wk =   0.0137931
        k(   25) = (  -1.0000000   0.2500000   0.0000000), wk =   0.0137931
        k(   26) = (  -1.0000000   0.2812500   0.0000000), wk =   0.0137931
        k(   27) = (  -1.0000000   0.3125000   0.0000000), wk =   0.0137931
        k(   28) = (  -1.0000000   0.3437500   0.0000000), wk =   0.0137931
        k(   29) = (  -1.0000000   0.3750000   0.0000000), wk =   0.0137931
        k(   30) = (  -1.0000000   0.4062500   0.0000000), wk =   0.0137931
        k(   31) = (  -1.0000000   0.4375000   0.0000000), wk =   0.0137931
        k(   32) = (  -1.0000000   0.4687500   0.0000000), wk =   0.0137931
        k(   33) = (  -1.0000000   0.5000000   0.0000000), wk =   0.0137931
        k(   34) = (  -0.9843750   0.5156250   0.0000000), wk =   0.0137931
        k(   35) = (  -0.9687500   0.5312500   0.0000000), wk =   0.0137931
        k(   36) = (  -0.9531250   0.5468750   0.0000000), wk =   0.0137931
        k(   37) = (  -0.9375000   0.5625000   0.0000000), wk =   0.0137931
        k(   38) = (  -0.9218750   0.5781250   0.0000000), wk =   0.0137931
        k(   39) = (  -0.9062500   0.5937500   0.0000000), wk =   0.0137931
        k(   40) = (  -0.8906250   0.6093750   0.0000000), wk =   0.0137931
        k(   41) = (  -0.8750000   0.6250000   0.0000000), wk =   0.0137931
        k(   42) = (  -0.8593750   0.6406250   0.0000000), wk =   0.0137931
        k(   43) = (  -0.8437500   0.6562500   0.0000000), wk =   0.0137931
        k(   44) = (  -0.8281250   0.6718750   0.0000000), wk =   0.0137931
        k(   45) = (  -0.8125000   0.6875000   0.0000000), wk =   0.0137931
        k(   46) = (  -0.7968750   0.7031250   0.0000000), wk =   0.0137931
        k(   47) = (  -0.7812500   0.7187500   0.0000000), wk =   0.0137931
        k(   48) = (  -0.7656250   0.7343750   0.0000000), wk =   0.0137931
        k(   49) = (  -0.7500000   0.7500000   0.0000000), wk =   0.0137931
        k(   50) = (  -0.7031250   0.7031250   0.0000000), wk =   0.0137931
        k(   51) = (  -0.6562500   0.6562500   0.0000000), wk =   0.0137931
        k(   52) = (  -0.6093750   0.6093750   0.0000000), wk =   0.0137931
        k(   53) = (  -0.5625000   0.5625000   0.0000000), wk =   0.0137931
        k(   54) = (  -0.5156250   0.5156250   0.0000000), wk =   0.0137931
        k(   55) = (  -0.4687500   0.4687500   0.0000000), wk =   0.0137931
        k(   56) = (  -0.4218750   0.4218750   0.0000000), wk =   0.0137931
        k(   57) = (  -0.3750000   0.3750000   0.0000000), wk =   0.0137931
        k(   58) = (  -0.3281250   0.3281250   0.0000000), wk =   0.0137931
        k(   59) = (  -0.2812500   0.2812500   0.0000000), wk =   0.0137931
        k(   60) = (  -0.2343750   0.2343750   0.0000000), wk =   0.0137931
        k(   61) = (  -0.1875000   0.1875000   0.0000000), wk =   0.0137931
        k(   62) = (  -0.1406250   0.1406250   0.0000000), wk =   0.0137931
        k(   63) = (  -0.0937500   0.0937500   0.0000000), wk =   0.0137931
        k(   64) = (  -0.0468750   0.0468750   0.0000000), wk =   0.0137931
        k(   65) = (   0.0000000   0.0000000   0.0000000), wk =   0.0137931
        k(   66) = (  -0.0312500   0.0312500   0.0312500), wk =   0.0137931
        k(   67) = (  -0.0625000   0.0625000   0.0625000), wk =   0.0137931
        k(   68) = (  -0.0937500   0.0937500   0.0937500), wk =   0.0137931
        k(   69) = (  -0.1250000   0.1250000   0.1250000), wk =   0.0137931
        k(   70) = (  -0.1562500   0.1562500   0.1562500), wk =   0.0137931
        k(   71) = (  -0.1875000   0.1875000   0.1875000), wk =   0.0137931
        k(   72) = (  -0.2187500   0.2187500   0.2187500), wk =   0.0137931
        k(   73) = (  -0.2500000   0.2500000   0.2500000), wk =   0.0137931
        k(   74) = (  -0.2812500   0.2812500   0.2812500), wk =   0.0137931
        k(   75) = (  -0.3125000   0.3125000   0.3125000), wk =   0.0137931
        k(   76) = (  -0.3437500   0.3437500   0.3437500), wk =   0.0137931
        k(   77) = (  -0.3750000   0.3750000   0.3750000), wk =   0.0137931
        k(   78) = (  -0.4062500   0.4062500   0.4062500), wk =   0.0137931
        k(   79) = (  -0.4375000   0.4375000   0.4375000), wk =   0.0137931
        k(   80) = (  -0.4687500   0.4687500   0.4687500), wk =   0.0137931
        k(   81) = (  -0.5000000   0.5000000   0.5000000), wk =   0.0137931
        k(   82) = (  -0.5312500   0.4843750   0.4843750), wk =   0.0137931
        k(   83) = (  -0.5625000   0.4687500   0.4687500), wk =   0.0137931
        k(   84) = (  -0.5937500   0.4531250   0.4531250), wk =   0.0137931
        k(   85) = (  -0.6250000   0.4375000   0.4375000), wk =   0.0137931
        k(   86) = (  -0.6562500   0.4218750   0.4218750), wk =   0.0137931
        k(   87) = (  -0.6875000   0.4062500   0.4062500), wk =   0.0137931
        k(   88) = (  -0.7187500   0.3906250   0.3906250), wk =   0.0137931
        k(   89) = (  -0.7500000   0.3750000   0.3750000), wk =   0.0137931
        k(   90) = (  -0.7812500   0.3593750   0.3593750), wk =   0.0137931
        k(   91) = (  -0.8125000   0.3437500   0.3437500), wk =   0.0137931
        k(   92) = (  -0.8437500   0.3281250   0.3281250), wk =   0.0137931
        k(   93) = (  -0.8750000   0.3125000   0.3125000), wk =   0.0137931
        k(   94) = (  -0.9062500   0.2968750   0.2968750), wk =   0.0137931
        k(   95) = (  -0.9375000   0.2812500   0.2812500), wk =   0.0137931
        k(   96) = (  -0.9687500   0.2656250   0.2656250), wk =   0.0137931
        k(   97) = (  -1.0000000   0.2500000   0.2500000), wk =   0.0137931
        k(   98) = (  -1.0000000   0.2656250   0.2343750), wk =   0.0137931
        k(   99) = (  -1.0000000   0.2812500   0.2187500), wk =   0.0137931
        k(  100) = (  -1.0000000   0.2968750   0.2031250), wk =   0.0137931
        k(  101) = (  -1.0000000   0.3125000   0.1875000), wk =   0.0137931
        k(  102) = (  -1.0000000   0.3281250   0.1718750), wk =   0.0137931
        k(  103) = (  -1.0000000   0.3437500   0.1562500), wk =   0.0137931
        k(  104) = (  -1.0000000   0.3593750   0.1406250), wk =   0.0137931
        k(  105) = (  -1.0000000   0.3750000   0.1250000), wk =   0.0137931
        k(  106) = (  -1.0000000   0.3906250   0.1093750), wk =   0.0137931
        k(  107) = (  -1.0000000   0.4062500   0.0937500), wk =   0.0137931
        k(  108) = (  -1.0000000   0.4218750   0.0781250), wk =   0.0137931
        k(  109) = (  -1.0000000   0.4375000   0.0625000), wk =   0.0137931
        k(  110) = (  -1.0000000   0.4531250   0.0468750), wk =   0.0137931
        k(  111) = (  -1.0000000   0.4687500   0.0312500), wk =   0.0137931
        k(  112) = (  -1.0000000   0.4843750   0.0156250), wk =   0.0137931
        k(  113) = (  -1.0000000   0.5000000   0.0000000), wk =   0.0137931
        k(  114) = (  -0.9687500   0.5000000   0.0312500), wk =   0.0137931
        k(  115) = (  -0.9375000   0.5000000   0.0625000), wk =   0.0137931
        k(  116) = (  -0.9062500   0.5000000   0.0937500), wk =   0.0137931
        k(  117) = (  -0.8750000   0.5000000   0.1250000), wk =   0.0137931
        k(  118) = (  -0.8437500   0.5000000   0.1562500), wk =   0.0137931
        k(  119) = (  -0.8125000   0.5000000   0.1875000), wk =   0.0137931
        k(  120) = (  -0.7812500   0.5000000   0.2187500), wk =   0.0137931
        k(  121) = (  -0.7500000   0.5000000   0.2500000), wk =   0.0137931
        k(  122) = (  -0.7187500   0.5000000   0.2812500), wk =   0.0137931
        k(  123) = (  -0.6875000   0.5000000   0.3125000), wk =   0.0137931
        k(  124) = (  -0.6562500   0.5000000   0.3437500), wk =   0.0137931
        k(  125) = (  -0.6250000   0.5000000   0.3750000), wk =   0.0137931
        k(  126) = (  -0.5937500   0.5000000   0.4062500), wk =   0.0137931
        k(  127) = (  -0.5625000   0.5000000   0.4375000), wk =   0.0137931
        k(  128) = (  -0.5312500   0.5000000   0.4687500), wk =   0.0137931
        k(  129) = (  -0.5000000   0.5000000   0.5000000), wk =   0.0137931
        k(  130) = (  -0.5156250   0.5156250   0.4687500), wk =   0.0137931
        k(  131) = (  -0.5312500   0.5312500   0.4375000), wk =   0.0137931
        k(  132) = (  -0.5468750   0.5468750   0.4062500), wk =   0.0137931
        k(  133) = (  -0.5625000   0.5625000   0.3750000), wk =   0.0137931
        k(  134) = (  -0.5781250   0.5781250   0.3437500), wk =   0.0137931
        k(  135) = (  -0.5937500   0.5937500   0.3125000), wk =   0.0137931
        k(  136) = (  -0.6093750   0.6093750   0.2812500), wk =   0.0137931
        k(  137) = (  -0.6250000   0.6250000   0.2500000), wk =   0.0137931
        k(  138) = (  -0.6406250   0.6406250   0.2187500), wk =   0.0137931
        k(  139) = (  -0.6562500   0.6562500   0.1875000), wk =   0.0137931
        k(  140) = (  -0.6718750   0.6718750   0.1562500), wk =   0.0137931
        k(  141) = (  -0.6875000   0.6875000   0.1250000), wk =   0.0137931
        k(  142) = (  -0.7031250   0.7031250   0.0937500), wk =   0.0137931
        k(  143) = (  -0.7187500   0.7187500   0.0625000), wk =   0.0137931
        k(  144) = (  -0.7343750   0.7343750   0.0312500), wk =   0.0137931
        k(  145) = (  -0.7500000   0.7500000   0.0000000), wk =   0.0137931

                       cryst. coord.
        k(    1) = (   0.0000000   0.0000000   0.0000000), wk =   0.0137931
        k(    2) = (   0.0312500   0.0000000   0.0312500), wk =   0.0137931
        k(    3) = (   0.0625000   0.0000000   0.0625000), wk =   0.0137931
        k(    4) = (   0.0937500   0.0000000   0.0937500), wk =   0.0137931
        k(    5) = (   0.1250000   0.0000000   0.1250000), wk =   0.0137931
        k(    6) = (   0.1562500   0.0000000   0.1562500), wk =   0.0137931
        k(    7) = (   0.1875000   0.0000000   0.1875000), wk =   0.0137931
        k(    8) = (   0.2187500   0.0000000   0.2187500), wk =   0.0137931
        k(    9) = (   0.2500000   0.0000000   0.2500000), wk =   0.0137931
        k(   10) = (   0.2812500   0.0000000   0.2812500), wk =   0.0137931
        k(   11) = (   0.3125000   0.0000000   0.3125000), wk =   0.0137931
        k(   12) = (   0.3437500   0.0000000   0.3437500), wk =   0.0137931
        k(   13) = (   0.3750000   0.0000000   0.3750000), wk =   0.0137931
        k(   14) = (   0.4062500   0.0000000   0.4062500), wk =   0.0137931
        k(   15) = (   0.4375000   0.0000000   0.4375000), wk =   0.0137931
        k(   16) = (   0.4687500   0.0000000   0.4687500), wk =   0.0137931
        k(   17) = (   0.5000000   0.0000000   0.5000000), wk =   0.0137931
        k(   18) = (   0.5000000   0.0156250   0.5156250), wk =   0.0137931
        k(   19) = (   0.5000000   0.0312500   0.5312500), wk =   0.0137931
        k(   20) = (   0.5000000   0.0468750   0.5468750), wk =   0.0137931
        k(   21) = (   0.5000000   0.0625000   0.5625000), wk =   0.0137931
        k(   22) = (   0.5000000   0.0781250   0.5781250), wk =   0.0137931
        k(   23) = (   0.5000000   0.0937500   0.5937500), wk =   0.0137931
        k(   24) = (   0.5000000   0.1093750   0.6093750), wk =   0.0137931
        k(   25) = (   0.5000000   0.1250000   0.6250000), wk =   0.0137931
        k(   26) = (   0.5000000   0.1406250   0.6406250), wk =   0.0137931
        k(   27) = (   0.5000000   0.1562500   0.6562500), wk =   0.0137931
        k(   28) = (   0.5000000   0.1718750   0.6718750), wk =   0.0137931
        k(   29) = (   0.5000000   0.1875000   0.6875000), wk =   0.0137931
        k(   30) = (   0.5000000   0.2031250   0.7031250), wk =   0.0137931
        k(   31) = (   0.5000000   0.2187500   0.7187500), wk =   0.0137931
        k(   32) = (   0.5000000   0.2343750   0.7343750), wk =   0.0137931
        k(   33) = (   0.5000000   0.2500000   0.7500000), wk =   0.0137931
        k(   34) = (   0.4921875   0.2578125   0.7500000), wk =   0.0137931
        k(   35) = (   0.4843750   0.2656250   0.7500000), wk =   0.0137931
        k(   36) = (   0.4765625   0.2734375   0.7500000), wk =   0.0137931
        k(   37) = (   0.4687500   0.2812500   0.7500000), wk =   0.0137931
        k(   38) = (   0.4609375   0.2890625   0.7500000), wk =   0.0137931
        k(   39) = (   0.4531250   0.2968750   0.7500000), wk =   0.0137931
        k(   40) = (   0.4453125   0.3046875   0.7500000), wk =   0.0137931
        k(   41) = (   0.4375000   0.3125000   0.7500000), wk =   0.0137931
        k(   42) = (   0.4296875   0.3203125   0.7500000), wk =   0.0137931
        k(   43) = (   0.4218750   0.3281250   0.7500000), wk =   0.0137931
        k(   44) = (   0.4140625   0.3359375   0.7500000), wk =   0.0137931
        k(   45) = (   0.4062500   0.3437500   0.7500000), wk =   0.0137931
        k(   46) = (   0.3984375   0.3515625   0.7500000), wk =   0.0137931
        k(   47) = (   0.3906250   0.3593750   0.7500000), wk =   0.0137931
        k(   48) = (   0.3828125   0.3671875   0.7500000), wk =   0.0137931
        k(   49) = (   0.3750000   0.3750000   0.7500000), wk =   0.0137931
        k(   50) = (   0.3515625   0.3515625   0.7031250), wk =   0.0137931
        k(   51) = (   0.3281250   0.3281250   0.6562500), wk =   0.0137931
        k(   52) = (   0.3046875   0.3046875   0.6093750), wk =   0.0137931
        k(   53) = (   0.2812500   0.2812500   0.5625000), wk =   0.0137931
        k(   54) = (   0.2578125   0.2578125   0.5156250), wk =   0.0137931
        k(   55) = (   0.2343750   0.2343750   0.4687500), wk =   0.0137931
        k(   56) = (   0.2109375   0.2109375   0.4218750), wk =   0.0137931
        k(   57) = (   0.1875000   0.1875000   0.3750000), wk =   0.0137931
        k(   58) = (   0.1640625   0.1640625   0.3281250), wk =   0.0137931
        k(   59) = (   0.1406250   0.1406250   0.2812500), wk =   0.0137931
        k(   60) = (   0.1171875   0.1171875   0.2343750), wk =   0.0137931
        k(   61) = (   0.0937500   0.0937500   0.1875000), wk =   0.0137931
        k(   62) = (   0.0703125   0.0703125   0.1406250), wk =   0.0137931
        k(   63) = (   0.0468750   0.0468750   0.0937500), wk =   0.0137931
        k(   64) = (   0.0234375   0.0234375   0.0468750), wk =   0.0137931
        k(   65) = (   0.0000000   0.0000000   0.0000000), wk =   0.0137931
        k(   66) = (   0.0312500   0.0312500   0.0312500), wk =   0.0137931
        k(   67) = (   0.0625000   0.0625000   0.0625000), wk =   0.0137931
        k(   68) = (   0.0937500   0.0937500   0.0937500), wk =   0.0137931
        k(   69) = (   0.1250000   0.1250000   0.1250000), wk =   0.0137931
        k(   70) = (   0.1562500   0.1562500   0.1562500), wk =   0.0137931
        k(   71) = (   0.1875000   0.1875000   0.1875000), wk =   0.0137931
        k(   72) = (   0.2187500   0.2187500   0.2187500), wk =   0.0137931
        k(   73) = (   0.2500000   0.2500000   0.2500000), wk =   0.0137931
        k(   74) = (   0.2812500   0.2812500   0.2812500), wk =   0.0137931
        k(   75) = (   0.3125000   0.3125000   0.3125000), wk =   0.0137931
        k(   76) = (   0.3437500   0.3437500   0.3437500), wk =   0.0137931
        k(   77) = (   0.3750000   0.3750000   0.3750000), wk =   0.0137931
        k(   78) = (   0.4062500   0.4062500   0.4062500), wk =   0.0137931
        k(   79) = (   0.4375000   0.4375000   0.4375000), wk =   0.0137931
        k(   80) = (   0.4687500   0.4687500   0.4687500), wk =   0.0137931
        k(   81) = (   0.5000000   0.5000000   0.5000000), wk =   0.0137931
        k(   82) = (   0.5078125   0.4843750   0.5078125), wk =   0.0137931
        k(   83) = (   0.5156250   0.4687500   0.5156250), wk =   0.0137931
        k(   84) = (   0.5234375   0.4531250   0.5234375), wk =   0.0137931
        k(   85) = (   0.5312500   0.4375000   0.5312500), wk =   0.0137931
        k(   86) = (   0.5390625   0.4218750   0.5390625), wk =   0.0137931
        k(   87) = (   0.5468750   0.4062500   0.5468750), wk =   0.0137931
        k(   88) = (   0.5546875   0.3906250   0.5546875), wk =   0.0137931
        k(   89) = (   0.5625000   0.3750000   0.5625000), wk =   0.0137931
        k(   90) = (   0.5703125   0.3593750   0.5703125), wk =   0.0137931
        k(   91) = (   0.5781250   0.3437500   0.5781250), wk =   0.0137931
        k(   92) = (   0.5859375   0.3281250   0.5859375), wk =   0.0137931
        k(   93) = (   0.5937500   0.3125000   0.5937500), wk =   0.0137931
        k(   94) = (   0.6015625   0.2968750   0.6015625), wk =   0.0137931
        k(   95) = (   0.6093750   0.2812500   0.6093750), wk =   0.0137931
        k(   96) = (   0.6171875   0.2656250   0.6171875), wk =   0.0137931
        k(   97) = (   0.6250000   0.2500000   0.6250000), wk =   0.0137931
        k(   98) = (   0.6171875   0.2500000   0.6328125), wk =   0.0137931
        k(   99) = (   0.6093750   0.2500000   0.6406250), wk =   0.0137931
        k(  100) = (   0.6015625   0.2500000   0.6484375), wk =   0.0137931
        k(  101) = (   0.5937500   0.2500000   0.6562500), wk =   0.0137931
        k(  102) = (   0.5859375   0.2500000   0.6640625), wk =   0.0137931
        k(  103) = (   0.5781250   0.2500000   0.6718750), wk =   0.0137931
        k(  104) = (   0.5703125   0.2500000   0.6796875), wk =   0.0137931
        k(  105) = (   0.5625000   0.2500000   0.6875000), wk =   0.0137931
        k(  106) = (   0.5546875   0.2500000   0.6953125), wk =   0.0137931
        k(  107) = (   0.5468750   0.2500000   0.7031250), wk =   0.0137931
        k(  108) = (   0.5390625   0.2500000   0.7109375), wk =   0.0137931
        k(  109) = (   0.5312500   0.2500000   0.7187500), wk =   0.0137931
        k(  110) = (   0.5234375   0.2500000   0.7265625), wk =   0.0137931
        k(  111) = (   0.5156250   0.2500000   0.7343750), wk =   0.0137931
        k(  112) = (   0.5078125   0.2500000   0.7421875), wk =   0.0137931
        k(  113) = (   0.5000000   0.2500000   0.7500000), wk =   0.0137931
        k(  114) = (   0.5000000   0.2656250   0.7343750), wk =   0.0137931
        k(  115) = (   0.5000000   0.2812500   0.7187500), wk =   0.0137931
        k(  116) = (   0.5000000   0.2968750   0.7031250), wk =   0.0137931
        k(  117) = (   0.5000000   0.3125000   0.6875000), wk =   0.0137931
        k(  118) = (   0.5000000   0.3281250   0.6718750), wk =   0.0137931
        k(  119) = (   0.5000000   0.3437500   0.6562500), wk =   0.0137931
        k(  120) = (   0.5000000   0.3593750   0.6406250), wk =   0.0137931
        k(  121) = (   0.5000000   0.3750000   0.6250000), wk =   0.0137931
        k(  122) = (   0.5000000   0.3906250   0.6093750), wk =   0.0137931
        k(  123) = (   0.5000000   0.4062500   0.5937500), wk =   0.0137931
        k(  124) = (   0.5000000   0.4218750   0.5781250), wk =   0.0137931
        k(  125) = (   0.5000000   0.4375000   0.5625000), wk =   0.0137931
        k(  126) = (   0.5000000   0.4531250   0.5468750), wk =   0.0137931
        k(  127) = (   0.5000000   0.4687500   0.5312500), wk =   0.0137931
        k(  128) = (   0.5000000   0.4843750   0.5156250), wk =   0.0137931
        k(  129) = (   0.5000000   0.5000000   0.5000000), wk =   0.0137931
        k(  130) = (   0.4921875   0.4921875   0.5156250), wk =   0.0137931
        k(  131) = (   0.4843750   0.4843750   0.5312500), wk =   0.0137931
        k(  132) = (   0.4765625   0.4765625   0.5468750), wk =   0.0137931
        k(  133) = (   0.4687500   0.4687500   0.5625000), wk =   0.0137931
        k(  134) = (   0.4609375   0.4609375   0.5781250), wk =   0.0137931
        k(  135) = (   0.4531250   0.4531250   0.5937500), wk =   0.0137931
        k(  136) = (   0.4453125   0.4453125   0.6093750), wk =   0.0137931
        k(  137) = (   0.4375000   0.4375000   0.6250000), wk =   0.0137931
        k(  138) = (   0.4296875   0.4296875   0.6406250), wk =   0.0137931
        k(  139) = (   0.4218750   0.4218750   0.6562500), wk =   0.0137931
        k(  140) = (   0.4140625   0.4140625   0.6718750), wk =   0.0137931
        k(  141) = (   0.4062500   0.4062500   0.6875000), wk =   0.0137931
        k(  142) = (   0.3984375   0.3984375   0.7031250), wk =   0.0137931
        k(  143) = (   0.3906250   0.3906250   0.7187500), wk =   0.0137931
        k(  144) = (   0.3828125   0.3828125   0.7343750), wk =   0.0137931
        k(  145) = (   0.3750000   0.3750000   0.7500000), wk =   0.0137931

     Dense  grid:     7119 G-vectors     FFT dimensions: (  27,  27,  27)

     Smooth grid:     2445 G-vectors     FFT dimensions: (  20,  20,  20)

     Dynamical RAM for                 wfc:       0.02 MB

     Dynamical RAM for     wfc (w. buffer):       0.02 MB

     Dynamical RAM for           str. fact:       0.11 MB

     Dynamical RAM for           local pot:       0.00 MB

     Dynamical RAM for          nlocal pot:       0.09 MB

     Dynamical RAM for                qrad:       1.24 MB

     Dynamical RAM for          rho,v,vnew:       0.78 MB

     Dynamical RAM for           G-vectors:       0.43 MB

     Dynamical RAM for          h,s,v(r/c):       0.00 MB

     Dynamical RAM for          <psi|beta>:       0.00 MB

     Dynamical RAM for                 psi:       0.04 MB

     Dynamical RAM for                hpsi:       0.04 MB

     Dynamical RAM for                spsi:       0.04 MB

     Dynamical RAM for      wfcinit/wfcrot:       0.04 MB

     Dynamical RAM for           addusdens:      20.31 MB

     Estimated static dynamical RAM per process >       3.63 MB

     Estimated max dynamical RAM per process >      23.94 MB

     The potential is recalculated from file :
     ./tmp/al.save/charge-density

     Starting wfcs are    4 randomized atomic wfcs

     Band Structure Calculation
     Davidson diagonalization with overlap

     Computing kpt #:     1  of   145
     c_bands:  1 eigenvalues not converged
     total cpu time spent up to now is        0.5 secs

     Computing kpt #:     2  of   145
     total cpu time spent up to now is        0.5 secs

     Computing kpt #:     3  of   145
     total cpu time spent up to now is        0.5 secs

     Computing kpt #:     4  of   145
     total cpu time spent up to now is        0.5 secs

     Computing kpt #:     5  of   145
     total cpu time spent up to now is        0.5 secs

     Computing kpt #:     6  of   145
     total cpu time spent up to now is        0.5 secs

     Computing kpt #:     7  of   145
     total cpu time spent up to now is        0.5 secs

     Computing kpt #:     8  of   145
     total cpu time spent up to now is        0.5 secs

     Computing kpt #:     9  of   145
     total cpu time spent up to now is        0.6 secs

     Computing kpt #:    10  of   145
     total cpu time spent up to now is        0.6 secs

     Computing kpt #:    11  of   145
     c_bands:  1 eigenvalues not converged
     total cpu time spent up to now is        0.6 secs

     Computing kpt #:    12  of   145
     total cpu time spent up to now is        0.6 secs

     Computing kpt #:    13  of   145
     total cpu time spent up to now is        0.6 secs

     Computing kpt #:    14  of   145
     total cpu time spent up to now is        0.6 secs

     Computing kpt #:    15  of   145
     total cpu time spent up to now is        0.6 secs

     Computing kpt #:    16  of   145
     total cpu time spent up to now is        0.6 secs

     Computing kpt #:    17  of   145
     c_bands:  1 eigenvalues not converged
     total cpu time spent up to now is        0.6 secs

     Computing kpt #:    18  of   145
     total cpu time spent up to now is        0.7 secs

     Computing kpt #:    19  of   145
     total cpu time spent up to now is        0.7 secs

     Computing kpt #:    20  of   145
     total cpu time spent up to now is        0.7 secs

     Computing kpt #:    21  of   145
     total cpu time spent up to now is        0.7 secs

     Computing kpt #:    22  of   145
     total cpu time spent up to now is        0.7 secs

     Computing kpt #:    23  of   145
     total cpu time spent up to now is        0.7 secs

     Computing kpt #:    24  of   145
     total cpu time spent up to now is        0.7 secs

     Computing kpt #:    25  of   145
     total cpu time spent up to now is        0.7 secs

     Computing kpt #:    26  of   145
     total cpu time spent up to now is        0.7 secs

     Computing kpt #:    27  of   145
     total cpu time spent up to now is        0.7 secs

     Computing kpt #:    28  of   145
     total cpu time spent up to now is        0.7 secs

     Computing kpt #:    29  of   145
     total cpu time spent up to now is        0.7 secs

     Computing kpt #:    30  of   145
     total cpu time spent up to now is        0.8 secs

     Computing kpt #:    31  of   145
     total cpu time spent up to now is        0.8 secs

     Computing kpt #:    32  of   145
     total cpu time spent up to now is        0.8 secs

     Computing kpt #:    33  of   145
     total cpu time spent up to now is        0.8 secs

     Computing kpt #:    34  of   145
     total cpu time spent up to now is        0.8 secs

     Computing kpt #:    35  of   145
     total cpu time spent up to now is        0.8 secs

     Computing kpt #:    36  of   145
     total cpu time spent up to now is        0.8 secs

     Computing kpt #:    37  of   145
     total cpu time spent up to now is        0.8 secs

     Computing kpt #:    38  of   145
     total cpu time spent up to now is        0.8 secs

     Computing kpt #:    39  of   145
     total cpu time spent up to now is        0.8 secs

     Computing kpt #:    40  of   145
     total cpu time spent up to now is        0.8 secs

     Computing kpt #:    41  of   145
     total cpu time spent up to now is        0.8 secs

     Computing kpt #:    42  of   145
     total cpu time spent up to now is        0.8 secs

     Computing kpt #:    43  of   145
     total cpu time spent up to now is        0.8 secs

     Computing kpt #:    44  of   145
     total cpu time spent up to now is        0.9 secs

     Computing kpt #:    45  of   145
     total cpu time spent up to now is        0.9 secs

     Computing kpt #:    46  of   145
     total cpu time spent up to now is        0.9 secs

     Computing kpt #:    47  of   145
     total cpu time spent up to now is        0.9 secs

     Computing kpt #:    48  of   145
     total cpu time spent up to now is        0.9 secs

     Computing kpt #:    49  of   145
     total cpu time spent up to now is        0.9 secs

     Computing kpt #:    50  of   145
     total cpu time spent up to now is        0.9 secs

     Computing kpt #:    51  of   145
     total cpu time spent up to now is        0.9 secs

     Computing kpt #:    52  of   145
     total cpu time spent up to now is        0.9 secs

     Computing kpt #:    53  of   145
     total cpu time spent up to now is        0.9 secs

     Computing kpt #:    54  of   145
     total cpu time spent up to now is        0.9 secs

     Computing kpt #:    55  of   145
     total cpu time spent up to now is        0.9 secs

     Computing kpt #:    56  of   145
     total cpu time spent up to now is        1.0 secs

     Computing kpt #:    57  of   145
     total cpu time spent up to now is        1.0 secs

     Computing kpt #:    58  of   145
     total cpu time spent up to now is        1.0 secs

     Computing kpt #:    59  of   145
     total cpu time spent up to now is        1.0 secs

     Computing kpt #:    60  of   145
     total cpu time spent up to now is        1.0 secs

     Computing kpt #:    61  of   145
     total cpu time spent up to now is        1.0 secs

     Computing kpt #:    62  of   145
     total cpu time spent up to now is        1.0 secs

     Computing kpt #:    63  of   145
     total cpu time spent up to now is        1.0 secs

     Computing kpt #:    64  of   145
     c_bands:  1 eigenvalues not converged
     total cpu time spent up to now is        1.0 secs

     Computing kpt #:    65  of   145
     c_bands:  1 eigenvalues not converged
     total cpu time spent up to now is        1.1 secs

     Computing kpt #:    66  of   145
     total cpu time spent up to now is        1.1 secs

     Computing kpt #:    67  of   145
     total cpu time spent up to now is        1.1 secs

     Computing kpt #:    68  of   145
     total cpu time spent up to now is        1.1 secs

     Computing kpt #:    69  of   145
     total cpu time spent up to now is        1.1 secs

     Computing kpt #:    70  of   145
     total cpu time spent up to now is        1.1 secs

     Computing kpt #:    71  of   145
     total cpu time spent up to now is        1.1 secs

     Computing kpt #:    72  of   145
     total cpu time spent up to now is        1.2 secs

     Computing kpt #:    73  of   145
     total cpu time spent up to now is        1.2 secs

     Computing kpt #:    74  of   145
     total cpu time spent up to now is        1.2 secs

     Computing kpt #:    75  of   145
     total cpu time spent up to now is        1.2 secs

     Computing kpt #:    76  of   145
     total cpu time spent up to now is        1.2 secs

     Computing kpt #:    77  of   145
     total cpu time spent up to now is        1.2 secs

     Computing kpt #:    78  of   145
     total cpu time spent up to now is        1.2 secs

     Computing kpt #:    79  of   145
     total cpu time spent up to now is        1.2 secs

     Computing kpt #:    80  of   145
     total cpu time spent up to now is        1.2 secs

     Computing kpt #:    81  of   145
     total cpu time spent up to now is        1.2 secs

     Computing kpt #:    82  of   145
     total cpu time spent up to now is        1.3 secs

     Computing kpt #:    83  of   145
     total cpu time spent up to now is        1.3 secs

     Computing kpt #:    84  of   145
     total cpu time spent up to now is        1.3 secs

     Computing kpt #:    85  of   145
     total cpu time spent up to now is        1.3 secs

     Computing kpt #:    86  of   145
     total cpu time spent up to now is        1.3 secs

     Computing kpt #:    87  of   145
     total cpu time spent up to now is        1.3 secs

     Computing kpt #:    88  of   145
     total cpu time spent up to now is        1.3 secs

     Computing kpt #:    89  of   145
     total cpu time spent up to now is        1.3 secs

     Computing kpt #:    90  of   145
     total cpu time spent up to now is        1.3 secs

     Computing kpt #:    91  of   145
     total cpu time spent up to now is        1.3 secs

     Computing kpt #:    92  of   145
     total cpu time spent up to now is        1.3 secs

     Computing kpt #:    93  of   145
     total cpu time spent up to now is        1.3 secs

     Computing kpt #:    94  of   145
     total cpu time spent up to now is        1.4 secs

     Computing kpt #:    95  of   145
     total cpu time spent up to now is        1.4 secs

     Computing kpt #:    96  of   145
     total cpu time spent up to now is        1.4 secs

     Computing kpt #:    97  of   145
     total cpu time spent up to now is        1.4 secs

     Computing kpt #:    98  of   145
     total cpu time spent up to now is        1.4 secs

     Computing kpt #:    99  of   145
     total cpu time spent up to now is        1.4 secs

     Computing kpt #:   100  of   145
     total cpu time spent up to now is        1.4 secs

     Computing kpt #:   101  of   145
     total cpu time spent up to now is        1.4 secs

     Computing kpt #:   102  of   145
     total cpu time spent up to now is        1.4 secs

     Computing kpt #:   103  of   145
     total cpu time spent up to now is        1.4 secs

     Computing kpt #:   104  of   145
     total cpu time spent up to now is        1.4 secs

     Computing kpt #:   105  of   145
     total cpu time spent up to now is        1.4 secs

     Computing kpt #:   106  of   145
     total cpu time spent up to now is        1.5 secs

     Computing kpt #:   107  of   145
     total cpu time spent up to now is        1.5 secs

     Computing kpt #:   108  of   145
     total cpu time spent up to now is        1.5 secs

     Computing kpt #:   109  of   145
     total cpu time spent up to now is        1.5 secs

     Computing kpt #:   110  of   145
     total cpu time spent up to now is        1.5 secs

     Computing kpt #:   111  of   145
     total cpu time spent up to now is        1.5 secs

     Computing kpt #:   112  of   145
     total cpu time spent up to now is        1.5 secs

     Computing kpt #:   113  of   145
     total cpu time spent up to now is        1.5 secs

     Computing kpt #:   114  of   145
     total cpu time spent up to now is        1.5 secs

     Computing kpt #:   115  of   145
     total cpu time spent up to now is        1.5 secs

     Computing kpt #:   116  of   145
     total cpu time spent up to now is        1.5 secs

     Computing kpt #:   117  of   145
     total cpu time spent up to now is        1.5 secs

     Computing kpt #:   118  of   145
     total cpu time spent up to now is        1.5 secs

     Computing kpt #:   119  of   145
     total cpu time spent up to now is        1.5 secs

     Computing kpt #:   120  of   145
     total cpu time spent up to now is        1.6 secs

     Computing kpt #:   121  of   145
     total cpu time spent up to now is        1.6 secs

     Computing kpt #:   122  of   145
     total cpu time spent up to now is        1.6 secs

     Computing kpt #:   123  of   145
     total cpu time spent up to now is        1.6 secs

     Computing kpt #:   124  of   145
     total cpu time spent up to now is        1.6 secs

     Computing kpt #:   125  of   145
     total cpu time spent up to now is        1.6 secs

     Computing kpt #:   126  of   145
     total cpu time spent up to now is        1.6 secs

     Computing kpt #:   127  of   145
     total cpu time spent up to now is        1.6 secs

     Computing kpt #:   128  of   145
     total cpu time spent up to now is        1.6 secs

     Computing kpt #:   129  of   145
     total cpu time spent up to now is        1.6 secs

     Computing kpt #:   130  of   145
     total cpu time spent up to now is        1.7 secs

     Computing kpt #:   131  of   145
     total cpu time spent up to now is        1.7 secs

     Computing kpt #:   132  of   145
     total cpu time spent up to now is        1.7 secs

     Computing kpt #:   133  of   145
     total cpu time spent up to now is        1.7 secs

     Computing kpt #:   134  of   145
     total cpu time spent up to now is        1.7 secs

     Computing kpt #:   135  of   145
     total cpu time spent up to now is        1.7 secs

     Computing kpt #:   136  of   145
     total cpu time spent up to now is        1.7 secs

     Computing kpt #:   137  of   145
     total cpu time spent up to now is        1.7 secs

     Computing kpt #:   138  of   145
     total cpu time spent up to now is        1.7 secs

     Computing kpt #:   139  of   145
     total cpu time spent up to now is        1.7 secs

     Computing kpt #:   140  of   145
     total cpu time spent up to now is        1.8 secs

     Computing kpt #:   141  of   145
     total cpu time spent up to now is        1.8 secs

     Computing kpt #:   142  of   145
     total cpu time spent up to now is        1.8 secs

     Computing kpt #:   143  of   145
     total cpu time spent up to now is        1.8 secs

     Computing kpt #:   144  of   145
     total cpu time spent up to now is        1.8 secs

     Computing kpt #:   145  of   145
     total cpu time spent up to now is        1.8 secs

     ethr =  3.33E-12,  avg # of iterations = 42.1

     total cpu time spent up to now is        1.8 secs

     End of band structure calculation

          k = 0.0000 0.0000 0.0000 (   331 PWs)   bands (ev):

    -3.2532  20.4207  20.4207  20.4207

          k =-0.0625 0.0000 0.0000 (   327 PWs)   bands (ev):

    -3.2180  19.9745  19.9745  20.1485

          k =-0.1250 0.0000 0.0000 (   319 PWs)   bands (ev):

    -3.1122  19.2148  19.2148  19.5151

          k =-0.1875 0.0000 0.0000 (   315 PWs)   bands (ev):

    -2.9361  18.4441  18.4441  18.7564

          k =-0.2500 0.0000 0.0000 (   307 PWs)   bands (ev):

    -2.6899  17.7115  17.7115  17.9822

          k =-0.3125 0.0000 0.0000 (   307 PWs)   bands (ev):

    -2.3741  17.0298  17.0298  17.2361

          k =-0.3750 0.0000 0.0000 (   303 PWs)   bands (ev):

    -1.9890  16.4038  16.4038  16.5374

          k =-0.4375 0.0000 0.0000 (   303 PWs)   bands (ev):

    -1.5353  15.8357  15.8357  15.8955

          k =-0.5000 0.0000 0.0000 (   311 PWs)   bands (ev):

    -1.0136  15.3153  15.3266  15.3266

          k =-0.5625 0.0000 0.0000 (   311 PWs)   bands (ev):

    -0.4249  14.5792  14.8000  14.8772

          k =-0.6250 0.0000 0.0000 (   311 PWs)   bands (ev):

     0.2298  13.1367  14.3512  14.4877

          k =-0.6875 0.0000 0.0000 (   314 PWs)   bands (ev):

     0.9491  11.7485  13.9702  14.1581

          k =-0.7500 0.0000 0.0000 (   322 PWs)   bands (ev):

     1.7308  10.4183  13.6576  13.8886

          k =-0.8125 0.0000 0.0000 (   322 PWs)   bands (ev):

     2.5708   9.1509  13.4141  13.6790

          k =-0.8750 0.0000 0.0000 (   314 PWs)   bands (ev):

     3.4593   7.9568  13.2399  13.5293

          k =-0.9375 0.0000 0.0000 (   310 PWs)   bands (ev):

     4.3563   6.8764  13.1353  13.4396

          k =-1.0000 0.0000 0.0000 (   302 PWs)   bands (ev):

     4.9302   6.2414  13.1005  13.4097

          k =-1.0000 0.0312 0.0000 (   302 PWs)   bands (ev):

     4.9382   6.2499  12.7188  13.3401

          k =-1.0000 0.0625 0.0000 (   308 PWs)   bands (ev):

     4.9625   6.2755  12.2323  13.1490

          k =-1.0000 0.0938 0.0000 (   308 PWs)   bands (ev):

     5.0028   6.3182  11.7549  12.8733

          k =-1.0000 0.1250 0.0000 (   308 PWs)   bands (ev):

     5.0594   6.3778  11.2921  12.5472

          k =-1.0000 0.1562 0.0000 (   312 PWs)   bands (ev):

     5.1320   6.4542  10.8449  12.1943

          k =-1.0000 0.1875 0.0000 (   312 PWs)   bands (ev):

     5.2209   6.5472  10.4139  11.8295

          k =-1.0000 0.2188 0.0000 (   312 PWs)   bands (ev):

     5.3260   6.6566   9.9990  11.4621

          k =-1.0000 0.2500 0.0000 (   308 PWs)   bands (ev):

     5.4472   6.7821   9.6005  11.0981

          k =-1.0000 0.2812 0.0000 (   312 PWs)   bands (ev):

     5.5846   6.9231   9.2183  10.7417

          k =-1.0000 0.3125 0.0000 (   308 PWs)   bands (ev):

     5.7383   7.0789   8.8525  10.3961

          k =-1.0000 0.3438 0.0000 (   308 PWs)   bands (ev):

     5.9081   7.2481   8.5031  10.0642

          k =-1.0000 0.3750 0.0000 (   308 PWs)   bands (ev):

     6.0943   7.4285   8.1700   9.7494

          k =-1.0000 0.4062 0.0000 (   314 PWs)   bands (ev):

     6.2967   7.6157   7.8534   9.4571

          k =-1.0000 0.4375 0.0000 (   308 PWs)   bands (ev):

     6.5153   7.5531   7.7992   9.1981

          k =-1.0000 0.4688 0.0000 (   308 PWs)   bands (ev):

     6.7503   7.2691   7.9532   8.9987

          k =-1.0000 0.5000 0.0000 (   308 PWs)   bands (ev):

     7.0015   7.0015   8.0199   8.9169

          k =-0.9844 0.5156 0.0000 (   308 PWs)   bands (ev):

     6.8759   7.0835   8.0303   8.9659

          k =-0.9688 0.5312 0.0000 (   308 PWs)   bands (ev):

     6.7584   7.0876   8.0300   9.1267

          k =-0.9531 0.5469 0.0000 (   310 PWs)   bands (ev):

     6.6490   7.0477   7.9979   9.3867

          k =-0.9375 0.5625 0.0000 (   312 PWs)   bands (ev):

     6.5477   6.9879   7.9429   9.7127

          k =-0.9219 0.5781 0.0000 (   312 PWs)   bands (ev):

     6.4546   6.9210   7.8775  10.0792

          k =-0.9062 0.5938 0.0000 (   311 PWs)   bands (ev):

     6.3695   6.8534   7.8096  10.4715

          k =-0.8906 0.6094 0.0000 (   311 PWs)   bands (ev):

     6.2926   6.7885   7.7436  10.8817

          k =-0.8750 0.6250 0.0000 (   308 PWs)   bands (ev):

     6.2238   6.7283   7.6817  11.3050

          k =-0.8594 0.6406 0.0000 (   308 PWs)   bands (ev):

     6.1631   6.6738   7.6255  11.7381

          k =-0.8438 0.6562 0.0000 (   308 PWs)   bands (ev):

     6.1104   6.6257   7.5757  12.1781

          k =-0.8281 0.6719 0.0000 (   304 PWs)   bands (ev):

     6.0659   6.5846   7.5330  12.6220

          k =-0.8125 0.6875 0.0000 (   304 PWs)   bands (ev):

     6.0295   6.5506   7.4976  13.0652

          k =-0.7969 0.7031 0.0000 (   304 PWs)   bands (ev):

     6.0012   6.5240   7.4700  13.4993

          k =-0.7812 0.7188 0.0000 (   308 PWs)   bands (ev):

     5.9809   6.5049   7.4501  13.9054

          k =-0.7656 0.7344 0.0000 (   308 PWs)   bands (ev):

     5.9688   6.4934   7.4381  14.2348

          k =-0.7500 0.7500 0.0000 (   308 PWs)   bands (ev):

     5.9648   6.4896   7.4341  14.3755

          k =-0.7031 0.7031 0.0000 (   309 PWs)   bands (ev):

     5.3881   6.3897   7.8352  14.7722

          k =-0.6562 0.6562 0.0000 (   309 PWs)   bands (ev):

     4.3126   6.8880   8.3461  15.2371

          k =-0.6094 0.6094 0.0000 (   311 PWs)   bands (ev):

     3.2973   7.4596   8.9343  15.7704

          k =-0.5625 0.5625 0.0000 (   303 PWs)   bands (ev):

     2.3484   8.1047   9.5935  16.3718

          k =-0.5156 0.5156 0.0000 (   307 PWs)   bands (ev):

     1.4688   8.8234  10.3200  17.0407

          k =-0.4688 0.4688 0.0000 (   315 PWs)   bands (ev):

     0.6606   9.6157  11.1103  17.7762

          k =-0.4219 0.4219 0.0000 (   311 PWs)   bands (ev):

    -0.0748  10.4814  11.9604  18.5761

          k =-0.3750 0.3750 0.0000 (   309 PWs)   bands (ev):

    -0.7360  11.4201  12.8658  19.4358

          k =-0.3281 0.3281 0.0000 (   311 PWs)   bands (ev):

    -1.3220  12.4310  13.8206  20.3437

          k =-0.2812 0.2812 0.0000 (   315 PWs)   bands (ev):

    -1.8318  13.5127  14.8175  21.2618

          k =-0.2344 0.2344 0.0000 (   317 PWs)   bands (ev):

    -2.2646  14.6626  15.8472  21.3859

          k =-0.1875 0.1875 0.0000 (   315 PWs)   bands (ev):

    -2.6197  15.8757  16.8971  21.0390

          k =-0.1406 0.1406 0.0000 (   315 PWs)   bands (ev):

    -2.8965  17.1418  17.9493  20.7687

          k =-0.0938 0.0938 0.0000 (   317 PWs)   bands (ev):

    -3.0946  18.4363  18.9752  20.5755

          k =-0.0469 0.0469 0.0000 (   327 PWs)   bands (ev):

    -3.2135  19.6804  19.9076  20.4594

          k = 0.0000 0.0000 0.0000 (   331 PWs)   bands (ev):

    -3.2532  20.4207  20.4207  20.4207

          k =-0.0312 0.0312 0.0312 (   328 PWs)   bands (ev):

    -3.2268  19.7809  20.3013  20.3013

          k =-0.0625 0.0625 0.0625 (   322 PWs)   bands (ev):

    -3.1474  18.6360  20.0398  20.0398

          k =-0.0938 0.0938 0.0938 (   319 PWs)   bands (ev):

    -3.0153  17.3919  19.7470  19.7470

          k =-0.1250 0.1250 0.1250 (   316 PWs)   bands (ev):

    -2.8306  16.1289  19.4677  19.4677

          k =-0.1562 0.1562 0.1562 (   311 PWs)   bands (ev):

    -2.5934  14.8746  19.2183  19.2183

          k =-0.1875 0.1875 0.1875 (   311 PWs)   bands (ev):

    -2.3040  13.6421  19.0055  19.0055

          k =-0.2188 0.2188 0.2188 (   311 PWs)   bands (ev):

    -1.9628  12.4386  18.8328  18.8328

          k =-0.2500 0.2500 0.2500 (   311 PWs)   bands (ev):

    -1.5701  11.2687  18.7018  18.7018

          k =-0.2812 0.2812 0.2812 (   305 PWs)   bands (ev):

    -1.1264  10.1355  18.6135  18.6135

          k =-0.3125 0.3125 0.3125 (   308 PWs)   bands (ev):

    -0.6320   9.0413  18.5685  18.5685

          k =-0.3438 0.3438 0.3438 (   308 PWs)   bands (ev):

    -0.0876   7.9879  18.5673  18.5673

          k =-0.3750 0.3750 0.3750 (   308 PWs)   bands (ev):

     0.5064   6.9766  18.6101  18.6101

          k =-0.4062 0.4062 0.4062 (   317 PWs)   bands (ev):

     1.1492   6.0088  18.6970  18.6970

          k =-0.4375 0.4375 0.4375 (   317 PWs)   bands (ev):

     1.8400   5.0856  18.8280  18.8280

          k =-0.4688 0.4688 0.4688 (   314 PWs)   bands (ev):

     2.5766   4.2094  19.0022  19.0022

          k =-0.5000 0.5000 0.5000 (   302 PWs)   bands (ev):

     3.2691   3.4705  19.1836  19.1836

          k =-0.5312 0.4844 0.4844 (   309 PWs)   bands (ev):

     3.2813   3.4834  18.6246  18.7494

          k =-0.5625 0.4688 0.4688 (   315 PWs)   bands (ev):

     3.3180   3.5222  17.8698  18.2981

          k =-0.5938 0.4531 0.4531 (   315 PWs)   bands (ev):

     3.3792   3.5868  17.0409  17.8692

          k =-0.6250 0.4375 0.4375 (   314 PWs)   bands (ev):

     3.4649   3.6771  16.1824  17.4631

          k =-0.6562 0.4219 0.4219 (   313 PWs)   bands (ev):

     3.5750   3.7929  15.3164  17.0801

          k =-0.6875 0.4062 0.4062 (   311 PWs)   bands (ev):

     3.7095   3.9340  14.4547  16.7199

          k =-0.7188 0.3906 0.3906 (   307 PWs)   bands (ev):

     3.8684   4.0999  13.6042  16.3828

          k =-0.7500 0.3750 0.3750 (   307 PWs)   bands (ev):

     4.0516   4.2904  12.7691  16.0685

          k =-0.7812 0.3594 0.3594 (   303 PWs)   bands (ev):

     4.2590   4.5048  11.9526  15.7772

          k =-0.8125 0.3438 0.3438 (   305 PWs)   bands (ev):

     4.4902   4.7421  11.1571  15.5087

          k =-0.8438 0.3281 0.3281 (   307 PWs)   bands (ev):

     4.7449   5.0010  10.3855  15.2630

          k =-0.8750 0.3125 0.3125 (   307 PWs)   bands (ev):

     5.0219   5.2791   9.6418  15.0401

          k =-0.9062 0.2969 0.2969 (   307 PWs)   bands (ev):

     5.3187   5.5722   8.9334  14.8399

          k =-0.9375 0.2812 0.2812 (   306 PWs)   bands (ev):

     5.6262   5.8716   8.2778  14.6624

          k =-0.9688 0.2656 0.2656 (   306 PWs)   bands (ev):

     5.9015   6.1679   7.7276  14.5076

          k =-1.0000 0.2500 0.2500 (   308 PWs)   bands (ev):

     5.9648   6.4896   7.4341  14.3755

          k =-1.0000 0.2656 0.2344 (   308 PWs)   bands (ev):

     5.9688   6.4934   7.4381  14.2348

          k =-1.0000 0.2812 0.2188 (   308 PWs)   bands (ev):

     5.9809   6.5049   7.4501  13.9054

          k =-1.0000 0.2969 0.2031 (   304 PWs)   bands (ev):

     6.0012   6.5240   7.4700  13.4993

          k =-1.0000 0.3125 0.1875 (   304 PWs)   bands (ev):

     6.0295   6.5506   7.4976  13.0652

          k =-1.0000 0.3281 0.1719 (   304 PWs)   bands (ev):

     6.0659   6.5846   7.5330  12.6220

          k =-1.0000 0.3438 0.1562 (   308 PWs)   bands (ev):

     6.1104   6.6257   7.5757  12.1781

          k =-1.0000 0.3594 0.1406 (   308 PWs)   bands (ev):

     6.1631   6.6738   7.6255  11.7381

          k =-1.0000 0.3750 0.1250 (   308 PWs)   bands (ev):

     6.2238   6.7283   7.6817  11.3050

          k =-1.0000 0.3906 0.1094 (   311 PWs)   bands (ev):

     6.2926   6.7885   7.7436  10.8817

          k =-1.0000 0.4062 0.0938 (   311 PWs)   bands (ev):

     6.3695   6.8534   7.8096  10.4715

          k =-1.0000 0.4219 0.0781 (   312 PWs)   bands (ev):

     6.4546   6.9210   7.8775  10.0792

          k =-1.0000 0.4375 0.0625 (   312 PWs)   bands (ev):

     6.5477   6.9879   7.9429   9.7127

          k =-1.0000 0.4531 0.0469 (   310 PWs)   bands (ev):

     6.6490   7.0477   7.9979   9.3867

          k =-1.0000 0.4688 0.0312 (   308 PWs)   bands (ev):

     6.7584   7.0876   8.0300   9.1267

          k =-1.0000 0.4844 0.0156 (   308 PWs)   bands (ev):

     6.8759   7.0835   8.0303   8.9659

          k =-1.0000 0.5000 0.0000 (   308 PWs)   bands (ev):

     7.0015   7.0015   8.0199   8.9169

          k =-0.9688 0.5000 0.0312 (   308 PWs)   bands (ev):

     6.7936   6.8759   8.2608   9.0725

          k =-0.9375 0.5000 0.0625 (   312 PWs)   bands (ev):

     6.4040   6.5797   8.7492   9.4588

          k =-0.9062 0.5000 0.0938 (   310 PWs)   bands (ev):

     5.9949   6.2205   9.3229   9.9680

          k =-0.8750 0.5000 0.1250 (   306 PWs)   bands (ev):

     5.6017   5.8506   9.9463  10.5474

          k =-0.8438 0.5000 0.1562 (   312 PWs)   bands (ev):

     5.2341   5.4919  10.6093  11.1747

          k =-0.8125 0.5000 0.1875 (   310 PWs)   bands (ev):

     4.8957   5.1541  11.3078  11.8394

          k =-0.7812 0.5000 0.2188 (   310 PWs)   bands (ev):

     4.5881   4.8424  12.0395  12.5353

          k =-0.7500 0.5000 0.2500 (   308 PWs)   bands (ev):

     4.3120   4.5595  12.8025  13.2583

          k =-0.7188 0.5000 0.2812 (   308 PWs)   bands (ev):

     4.0680   4.3074  13.5947  14.0045

          k =-0.6875 0.5000 0.3125 (   310 PWs)   bands (ev):

     3.8563   4.0873  14.4132  14.7700

          k =-0.6562 0.5000 0.3438 (   310 PWs)   bands (ev):

     3.6769   3.8998  15.2540  15.5498

          k =-0.6250 0.5000 0.3750 (   314 PWs)   bands (ev):

     3.5302   3.7458  16.1099  16.3369

          k =-0.5938 0.5000 0.4062 (   316 PWs)   bands (ev):

     3.4159   3.6256  16.9684  17.1205

          k =-0.5625 0.5000 0.4375 (   310 PWs)   bands (ev):

     3.3343   3.5395  17.8067  17.8836

          k =-0.5312 0.5000 0.4688 (   310 PWs)   bands (ev):

     3.2854   3.4877  18.5812  18.5980

          k =-0.5000 0.5000 0.5000 (   302 PWs)   bands (ev):

     3.2691   3.4705  19.1836  19.1836

          k =-0.5156 0.5156 0.4688 (   309 PWs)   bands (ev):

     3.2813   3.4834  18.6246  18.7494

          k =-0.5312 0.5312 0.4375 (   315 PWs)   bands (ev):

     3.3180   3.5222  17.8698  18.2981

          k =-0.5469 0.5469 0.4062 (   315 PWs)   bands (ev):

     3.3792   3.5868  17.0409  17.8692

          k =-0.5625 0.5625 0.3750 (   314 PWs)   bands (ev):

     3.4649   3.6771  16.1824  17.4631

          k =-0.5781 0.5781 0.3438 (   313 PWs)   bands (ev):

     3.5750   3.7929  15.3164  17.0801

          k =-0.5938 0.5938 0.3125 (   311 PWs)   bands (ev):

     3.7095   3.9340  14.4547  16.7199

          k =-0.6094 0.6094 0.2812 (   307 PWs)   bands (ev):

     3.8684   4.0999  13.6042  16.3828

          k =-0.6250 0.6250 0.2500 (   307 PWs)   bands (ev):

     4.0516   4.2904  12.7691  16.0685

          k =-0.6406 0.6406 0.2188 (   303 PWs)   bands (ev):

     4.2590   4.5048  11.9526  15.7772

          k =-0.6562 0.6562 0.1875 (   305 PWs)   bands (ev):

     4.4902   4.7421  11.1571  15.5087

          k =-0.6719 0.6719 0.1562 (   307 PWs)   bands (ev):

     4.7449   5.0010  10.3855  15.2630

          k =-0.6875 0.6875 0.1250 (   307 PWs)   bands (ev):

     5.0219   5.2791   9.6418  15.0401

          k =-0.7031 0.7031 0.0938 (   307 PWs)   bands (ev):

     5.3187   5.5722   8.9334  14.8399

          k =-0.7188 0.7188 0.0625 (   306 PWs)   bands (ev):

     5.6262   5.8716   8.2778  14.6624

          k =-0.7344 0.7344 0.0312 (   306 PWs)   bands (ev):

     5.9015   6.1679   7.7276  14.5076

          k =-0.7500 0.7500 0.0000 (   308 PWs)   bands (ev):

     5.9648   6.4896   7.4341  14.3755

     Writing all to output data dir ./tmp/al.save/ :
     XML data file, pseudopotentials, collected wavefunctions

     init_run     :      0.26s CPU      0.27s WALL (       1 calls)
     electrons    :      1.33s CPU      1.45s WALL (       1 calls)

     Called by init_run:
     wfcinit      :      0.00s CPU      0.00s WALL (       1 calls)
     wfcinit:atom :      0.00s CPU      0.00s WALL (     145 calls)
     wfcinit:wfcr :      0.11s CPU      0.11s WALL (     145 calls)
     potinit      :      0.08s CPU      0.08s WALL (       1 calls)
     hinit0       :      0.16s CPU      0.16s WALL (       1 calls)

     Called by electrons:
     c_bands      :      1.33s CPU      1.45s WALL (       1 calls)
     v_of_rho     :      0.00s CPU      0.00s WALL (       1 calls)
     v_h          :      0.00s CPU      0.00s WALL (       1 calls)
     v_xc         :      0.00s CPU      0.00s WALL (       1 calls)
     newd         :      0.01s CPU      0.02s WALL (       1 calls)

     Called by c_bands:
     init_us_2    :      0.00s CPU      0.01s WALL (     145 calls)
     cegterg      :      1.20s CPU      1.31s WALL (     370 calls)

     Called by sum_band:

     Called by *egterg:
     cdiaghg      :      0.07s CPU      0.07s WALL (    6251 calls)
     cegterg:over :      0.07s CPU      0.08s WALL (    6106 calls)
     cegterg:upda :      0.04s CPU      0.05s WALL (    6106 calls)
     cegterg:last :      0.11s CPU      0.12s WALL (    4889 calls)
     h_psi        :      0.83s CPU      0.90s WALL (    6621 calls)
     s_psi        :      0.10s CPU      0.11s WALL (    6621 calls)
     g_psi        :      0.02s CPU      0.02s WALL (    6106 calls)

     Called by h_psi:
     h_psi:calbec :      0.10s CPU      0.11s WALL (    6621 calls)
     vloc_psi     :      0.61s CPU      0.66s WALL (    6621 calls)
                                        0.00s GPU  (    6621 calls)
     add_vuspsi   :      0.10s CPU      0.11s WALL (    6621 calls)

     General routines
     calbec       :      0.09s CPU      0.10s WALL (    6621 calls)
     fft          :      0.04s CPU      0.04s WALL (      13 calls)
     ffts         :      0.08s CPU      0.08s WALL (       1 calls)
     fftw         :      0.48s CPU      0.52s WALL (   40454 calls)
     interpolate  :      0.08s CPU      0.08s WALL (       1 calls)
     davcio       :      0.00s CPU      0.00s WALL (     290 calls)

     Parallel routines

     PWSCF        :      1.68s CPU      1.81s WALL


   This run was terminated on:   4:22: 2   5Aug2026            

=------------------------------------------------------------------------------=
   JOB DONE.
=------------------------------------------------------------------------------=
