
     Program PWSCF v.7.5 starts on  5Aug2026 at  4:21:55 

     This program is part of the open-source Quantum ESPRESSO suite
     for quantum simulation of materials; please cite
         "P. Giannozzi et al., J. Phys.:Condens. Matter 21 395502 (2009);
         "P. Giannozzi et al., J. Phys.:Condens. Matter 29 465901 (2017);
         "P. Giannozzi et al., J. Chem. Phys. 152 154105 (2020);
          URL http://www.quantum-espresso.org", 
     in publications or presentations arising from this work. More details at
     http://www.quantum-espresso.org/quote

     Parallel version (MPI), running on     1 processors

     MPI processes distributed on     1 nodes
     6422 MiB available memory on the printing compute node when the environment starts

     Reading input from nscf.in

     Current dimensions of program PWSCF are:
     Max number of different atomic species (ntypx) = 10
     Max number of k-points (npk) =  40000
     Max angular momentum in pseudopotentials (lmaxx) =  4

     Atomic positions and unit cell read from directory:
     ./tmp/al.save/


     Subspace diagonalization in iterative solution of the eigenvalue problem:
     a serial algorithm will be used


     G-vector sticks info
     --------------------
     sticks:   dense  smooth     PW     G-vecs:    dense   smooth      PW
     Sum         499     241     85                 7119     2445     537

     Using Slab Decomposition



     bravais-lattice index     =            2
     lattice parameter (alat)  =       7.6530  a.u.
     unit-cell volume          =     112.0560 (a.u.)^3
     number of atoms/cell      =            1
     number of atomic types    =            1
     number of electrons       =         3.00
     number of Kohn-Sham states=            4
     kinetic-energy cutoff     =      30.0000  Ry
     charge density cutoff     =     240.0000  Ry
     Exchange-correlation= PBE
                           (   1   4   3   4   0   0   0)

     celldm(1)=   7.653000  celldm(2)=   0.000000  celldm(3)=   0.000000
     celldm(4)=   0.000000  celldm(5)=   0.000000  celldm(6)=   0.000000

     crystal axes: (cart. coord. in units of alat)
               a(1) = (  -0.500000   0.000000   0.500000 )  
               a(2) = (   0.000000   0.500000   0.500000 )  
               a(3) = (  -0.500000   0.500000   0.000000 )  

     reciprocal axes: (cart. coord. in units 2 pi/alat)
               b(1) = ( -1.000000 -1.000000  1.000000 )  
               b(2) = (  1.000000  1.000000  1.000000 )  
               b(3) = ( -1.000000  1.000000 -1.000000 )  


     PseudoPot. # 1 for Al read from file:
     ./pseudo/Al.pbe-n-rrkjus_psl.1.0.0.UPF
     MD5 check sum: bbe9f3f15d9b3b5ab9a58e4859ebdbfe
     Pseudo is Ultrasoft + core correction, Zval =  3.0
     Generated using &quot;atomic&quot; code by A. Dal Corso  v.6.3
     Using radial grid of 1135 points,  6 beta functions with: 
                l(1) =   0
                l(2) =   0
                l(3) =   1
                l(4) =   1
                l(5) =   2
                l(6) =   2
     Q(r) pseudized with 0 coefficients 


     atomic species   valence    mass     pseudopotential
     Al                3.00    26.98154     Al( 1.00)

     No symmetry found


                                    s                        frac. trans.

      isym =  1     identity                                     

 cryst.   s( 1) = (     1          0          0      )
                  (     0          1          0      )
                  (     0          0          1      )

 cart.    s( 1) = (  1.0000000  0.0000000  0.0000000 )
                  (  0.0000000  1.0000000  0.0000000 )
                  (  0.0000000  0.0000000  1.0000000 )


     point group C_1 (1)    
     there are  1 classes
     the character table:

       E    
A      1.00

     the symmetry operations in each class and the name of the first element:

     E        1
          identity                                               

   Cartesian axes

     site n.     atom                  positions (alat units)
         1        Al     tau(   1) = (   0.0000000   0.0000000   0.0000000  )

   Crystallographic axes

     site n.     atom                  positions (cryst. coord.)
         1        Al     tau(   1) = (  0.0000000  0.0000000  0.0000000  )

     number of k points=   512  Marzari-Vanderbilt smearing, width (Ry)=  0.0200
                       cart. coord. in units 2pi/alat
        k(    1) = (   0.0000000   0.0000000   0.0000000), wk =   0.0039062
        k(    2) = (  -0.1250000   0.1250000  -0.1250000), wk =   0.0039062
        k(    3) = (  -0.2500000   0.2500000  -0.2500000), wk =   0.0039062
        k(    4) = (  -0.3750000   0.3750000  -0.3750000), wk =   0.0039062
        k(    5) = (   0.5000000  -0.5000000   0.5000000), wk =   0.0039062
        k(    6) = (   0.3750000  -0.3750000   0.3750000), wk =   0.0039062
        k(    7) = (   0.2500000  -0.2500000   0.2500000), wk =   0.0039062
        k(    8) = (   0.1250000  -0.1250000   0.1250000), wk =   0.0039062
        k(    9) = (   0.1250000   0.1250000   0.1250000), wk =   0.0039062
        k(   10) = (   0.0000000   0.2500000   0.0000000), wk =   0.0039062
        k(   11) = (  -0.1250000   0.3750000  -0.1250000), wk =   0.0039062
        k(   12) = (  -0.2500000   0.5000000  -0.2500000), wk =   0.0039062
        k(   13) = (   0.6250000  -0.3750000   0.6250000), wk =   0.0039062
        k(   14) = (   0.5000000  -0.2500000   0.5000000), wk =   0.0039062
        k(   15) = (   0.3750000  -0.1250000   0.3750000), wk =   0.0039062
        k(   16) = (   0.2500000   0.0000000   0.2500000), wk =   0.0039062
        k(   17) = (   0.2500000   0.2500000   0.2500000), wk =   0.0039062
        k(   18) = (   0.1250000   0.3750000   0.1250000), wk =   0.0039062
        k(   19) = (   0.0000000   0.5000000   0.0000000), wk =   0.0039062
        k(   20) = (  -0.1250000   0.6250000  -0.1250000), wk =   0.0039062
        k(   21) = (   0.7500000  -0.2500000   0.7500000), wk =   0.0039062
        k(   22) = (   0.6250000  -0.1250000   0.6250000), wk =   0.0039062
        k(   23) = (   0.5000000   0.0000000   0.5000000), wk =   0.0039062
        k(   24) = (   0.3750000   0.1250000   0.3750000), wk =   0.0039062
        k(   25) = (   0.3750000   0.3750000   0.3750000), wk =   0.0039062
        k(   26) = (   0.2500000   0.5000000   0.2500000), wk =   0.0039062
        k(   27) = (   0.1250000   0.6250000   0.1250000), wk =   0.0039062
        k(   28) = (   0.0000000   0.7500000   0.0000000), wk =   0.0039062
        k(   29) = (   0.8750000  -0.1250000   0.8750000), wk =   0.0039062
        k(   30) = (   0.7500000   0.0000000   0.7500000), wk =   0.0039062
        k(   31) = (   0.6250000   0.1250000   0.6250000), wk =   0.0039062
        k(   32) = (   0.5000000   0.2500000   0.5000000), wk =   0.0039062
        k(   33) = (  -0.5000000  -0.5000000  -0.5000000), wk =   0.0039062
        k(   34) = (  -0.6250000  -0.3750000  -0.6250000), wk =   0.0039062
        k(   35) = (  -0.7500000  -0.2500000  -0.7500000), wk =   0.0039062
        k(   36) = (  -0.8750000  -0.1250000  -0.8750000), wk =   0.0039062
        k(   37) = (   0.0000000  -1.0000000   0.0000000), wk =   0.0039062
        k(   38) = (  -0.1250000  -0.8750000  -0.1250000), wk =   0.0039062
        k(   39) = (  -0.2500000  -0.7500000  -0.2500000), wk =   0.0039062
        k(   40) = (  -0.3750000  -0.6250000  -0.3750000), wk =   0.0039062
        k(   41) = (  -0.3750000  -0.3750000  -0.3750000), wk =   0.0039062
        k(   42) = (  -0.5000000  -0.2500000  -0.5000000), wk =   0.0039062
        k(   43) = (  -0.6250000  -0.1250000  -0.6250000), wk =   0.0039062
        k(   44) = (  -0.7500000   0.0000000  -0.7500000), wk =   0.0039062
        k(   45) = (   0.1250000  -0.8750000   0.1250000), wk =   0.0039062
        k(   46) = (   0.0000000  -0.7500000   0.0000000), wk =   0.0039062
        k(   47) = (  -0.1250000  -0.6250000  -0.1250000), wk =   0.0039062
        k(   48) = (  -0.2500000  -0.5000000  -0.2500000), wk =   0.0039062
        k(   49) = (  -0.2500000  -0.2500000  -0.2500000), wk =   0.0039062
        k(   50) = (  -0.3750000  -0.1250000  -0.3750000), wk =   0.0039062
        k(   51) = (  -0.5000000   0.0000000  -0.5000000), wk =   0.0039062
        k(   52) = (  -0.6250000   0.1250000  -0.6250000), wk =   0.0039062
        k(   53) = (   0.2500000  -0.7500000   0.2500000), wk =   0.0039062
        k(   54) = (   0.1250000  -0.6250000   0.1250000), wk =   0.0039062
        k(   55) = (   0.0000000  -0.5000000   0.0000000), wk =   0.0039062
        k(   56) = (  -0.1250000  -0.3750000  -0.1250000), wk =   0.0039062
        k(   57) = (  -0.1250000  -0.1250000  -0.1250000), wk =   0.0039062
        k(   58) = (  -0.2500000   0.0000000  -0.2500000), wk =   0.0039062
        k(   59) = (  -0.3750000   0.1250000  -0.3750000), wk =   0.0039062
        k(   60) = (  -0.5000000   0.2500000  -0.5000000), wk =   0.0039062
        k(   61) = (   0.3750000  -0.6250000   0.3750000), wk =   0.0039062
        k(   62) = (   0.2500000  -0.5000000   0.2500000), wk =   0.0039062
        k(   63) = (   0.1250000  -0.3750000   0.1250000), wk =   0.0039062
        k(   64) = (   0.0000000  -0.2500000   0.0000000), wk =   0.0039062
        k(   65) = (  -0.1250000  -0.1250000   0.1250000), wk =   0.0039062
        k(   66) = (  -0.2500000   0.0000000   0.0000000), wk =   0.0039062
        k(   67) = (  -0.3750000   0.1250000  -0.1250000), wk =   0.0039062
        k(   68) = (  -0.5000000   0.2500000  -0.2500000), wk =   0.0039062
        k(   69) = (   0.3750000  -0.6250000   0.6250000), wk =   0.0039062
        k(   70) = (   0.2500000  -0.5000000   0.5000000), wk =   0.0039062
        k(   71) = (   0.1250000  -0.3750000   0.3750000), wk =   0.0039062
        k(   72) = (   0.0000000  -0.2500000   0.2500000), wk =   0.0039062
        k(   73) = (   0.0000000   0.0000000   0.2500000), wk =   0.0039062
        k(   74) = (  -0.1250000   0.1250000   0.1250000), wk =   0.0039062
        k(   75) = (  -0.2500000   0.2500000   0.0000000), wk =   0.0039062
        k(   76) = (  -0.3750000   0.3750000  -0.1250000), wk =   0.0039062
        k(   77) = (   0.5000000  -0.5000000   0.7500000), wk =   0.0039062
        k(   78) = (   0.3750000  -0.3750000   0.6250000), wk =   0.0039062
        k(   79) = (   0.2500000  -0.2500000   0.5000000), wk =   0.0039062
        k(   80) = (   0.1250000  -0.1250000   0.3750000), wk =   0.0039062
        k(   81) = (   0.1250000   0.1250000   0.3750000), wk =   0.0039062
        k(   82) = (   0.0000000   0.2500000   0.2500000), wk =   0.0039062
        k(   83) = (  -0.1250000   0.3750000   0.1250000), wk =   0.0039062
        k(   84) = (  -0.2500000   0.5000000   0.0000000), wk =   0.0039062
        k(   85) = (   0.6250000  -0.3750000   0.8750000), wk =   0.0039062
        k(   86) = (   0.5000000  -0.2500000   0.7500000), wk =   0.0039062
        k(   87) = (   0.3750000  -0.1250000   0.6250000), wk =   0.0039062
        k(   88) = (   0.2500000   0.0000000   0.5000000), wk =   0.0039062
        k(   89) = (   0.2500000   0.2500000   0.5000000), wk =   0.0039062
        k(   90) = (   0.1250000   0.3750000   0.3750000), wk =   0.0039062
        k(   91) = (   0.0000000   0.5000000   0.2500000), wk =   0.0039062
        k(   92) = (  -0.1250000   0.6250000   0.1250000), wk =   0.0039062
        k(   93) = (   0.7500000  -0.2500000   1.0000000), wk =   0.0039062
        k(   94) = (   0.6250000  -0.1250000   0.8750000), wk =   0.0039062
        k(   95) = (   0.5000000   0.0000000   0.7500000), wk =   0.0039062
        k(   96) = (   0.3750000   0.1250000   0.6250000), wk =   0.0039062
        k(   97) = (  -0.6250000  -0.6250000  -0.3750000), wk =   0.0039062
        k(   98) = (  -0.7500000  -0.5000000  -0.5000000), wk =   0.0039062
        k(   99) = (  -0.8750000  -0.3750000  -0.6250000), wk =   0.0039062
        k(  100) = (  -1.0000000  -0.2500000  -0.7500000), wk =   0.0039062
        k(  101) = (  -0.1250000  -1.1250000   0.1250000), wk =   0.0039062
        k(  102) = (  -0.2500000  -1.0000000   0.0000000), wk =   0.0039062
        k(  103) = (  -0.3750000  -0.8750000  -0.1250000), wk =   0.0039062
        k(  104) = (  -0.5000000  -0.7500000  -0.2500000), wk =   0.0039062
        k(  105) = (  -0.5000000  -0.5000000  -0.2500000), wk =   0.0039062
        k(  106) = (  -0.6250000  -0.3750000  -0.3750000), wk =   0.0039062
        k(  107) = (  -0.7500000  -0.2500000  -0.5000000), wk =   0.0039062
        k(  108) = (  -0.8750000  -0.1250000  -0.6250000), wk =   0.0039062
        k(  109) = (   0.0000000  -1.0000000   0.2500000), wk =   0.0039062
        k(  110) = (  -0.1250000  -0.8750000   0.1250000), wk =   0.0039062
        k(  111) = (  -0.2500000  -0.7500000   0.0000000), wk =   0.0039062
        k(  112) = (  -0.3750000  -0.6250000  -0.1250000), wk =   0.0039062
        k(  113) = (  -0.3750000  -0.3750000  -0.1250000), wk =   0.0039062
        k(  114) = (  -0.5000000  -0.2500000  -0.2500000), wk =   0.0039062
        k(  115) = (  -0.6250000  -0.1250000  -0.3750000), wk =   0.0039062
        k(  116) = (  -0.7500000   0.0000000  -0.5000000), wk =   0.0039062
        k(  117) = (   0.1250000  -0.8750000   0.3750000), wk =   0.0039062
        k(  118) = (   0.0000000  -0.7500000   0.2500000), wk =   0.0039062
        k(  119) = (  -0.1250000  -0.6250000   0.1250000), wk =   0.0039062
        k(  120) = (  -0.2500000  -0.5000000   0.0000000), wk =   0.0039062
        k(  121) = (  -0.2500000  -0.2500000   0.0000000), wk =   0.0039062
        k(  122) = (  -0.3750000  -0.1250000  -0.1250000), wk =   0.0039062
        k(  123) = (  -0.5000000   0.0000000  -0.2500000), wk =   0.0039062
        k(  124) = (  -0.6250000   0.1250000  -0.3750000), wk =   0.0039062
        k(  125) = (   0.2500000  -0.7500000   0.5000000), wk =   0.0039062
        k(  126) = (   0.1250000  -0.6250000   0.3750000), wk =   0.0039062
        k(  127) = (   0.0000000  -0.5000000   0.2500000), wk =   0.0039062
        k(  128) = (  -0.1250000  -0.3750000   0.1250000), wk =   0.0039062
        k(  129) = (  -0.2500000  -0.2500000   0.2500000), wk =   0.0039062
        k(  130) = (  -0.3750000  -0.1250000   0.1250000), wk =   0.0039062
        k(  131) = (  -0.5000000   0.0000000   0.0000000), wk =   0.0039062
        k(  132) = (  -0.6250000   0.1250000  -0.1250000), wk =   0.0039062
        k(  133) = (   0.2500000  -0.7500000   0.7500000), wk =   0.0039062
        k(  134) = (   0.1250000  -0.6250000   0.6250000), wk =   0.0039062
        k(  135) = (   0.0000000  -0.5000000   0.5000000), wk =   0.0039062
        k(  136) = (  -0.1250000  -0.3750000   0.3750000), wk =   0.0039062
        k(  137) = (  -0.1250000  -0.1250000   0.3750000), wk =   0.0039062
        k(  138) = (  -0.2500000   0.0000000   0.2500000), wk =   0.0039062
        k(  139) = (  -0.3750000   0.1250000   0.1250000), wk =   0.0039062
        k(  140) = (  -0.5000000   0.2500000   0.0000000), wk =   0.0039062
        k(  141) = (   0.3750000  -0.6250000   0.8750000), wk =   0.0039062
        k(  142) = (   0.2500000  -0.5000000   0.7500000), wk =   0.0039062
        k(  143) = (   0.1250000  -0.3750000   0.6250000), wk =   0.0039062
        k(  144) = (   0.0000000  -0.2500000   0.5000000), wk =   0.0039062
        k(  145) = (   0.0000000   0.0000000   0.5000000), wk =   0.0039062
        k(  146) = (  -0.1250000   0.1250000   0.3750000), wk =   0.0039062
        k(  147) = (  -0.2500000   0.2500000   0.2500000), wk =   0.0039062
        k(  148) = (  -0.3750000   0.3750000   0.1250000), wk =   0.0039062
        k(  149) = (   0.5000000  -0.5000000   1.0000000), wk =   0.0039062
        k(  150) = (   0.3750000  -0.3750000   0.8750000), wk =   0.0039062
        k(  151) = (   0.2500000  -0.2500000   0.7500000), wk =   0.0039062
        k(  152) = (   0.1250000  -0.1250000   0.6250000), wk =   0.0039062
        k(  153) = (   0.1250000   0.1250000   0.6250000), wk =   0.0039062
        k(  154) = (   0.0000000   0.2500000   0.5000000), wk =   0.0039062
        k(  155) = (  -0.1250000   0.3750000   0.3750000), wk =   0.0039062
        k(  156) = (  -0.2500000   0.5000000   0.2500000), wk =   0.0039062
        k(  157) = (   0.6250000  -0.3750000   1.1250000), wk =   0.0039062
        k(  158) = (   0.5000000  -0.2500000   1.0000000), wk =   0.0039062
        k(  159) = (   0.3750000  -0.1250000   0.8750000), wk =   0.0039062
        k(  160) = (   0.2500000   0.0000000   0.7500000), wk =   0.0039062
        k(  161) = (  -0.7500000  -0.7500000  -0.2500000), wk =   0.0039062
        k(  162) = (  -0.8750000  -0.6250000  -0.3750000), wk =   0.0039062
        k(  163) = (  -1.0000000  -0.5000000  -0.5000000), wk =   0.0039062
        k(  164) = (  -1.1250000  -0.3750000  -0.6250000), wk =   0.0039062
        k(  165) = (  -0.2500000  -1.2500000   0.2500000), wk =   0.0039062
        k(  166) = (  -0.3750000  -1.1250000   0.1250000), wk =   0.0039062
        k(  167) = (  -0.5000000  -1.0000000   0.0000000), wk =   0.0039062
        k(  168) = (  -0.6250000  -0.8750000  -0.1250000), wk =   0.0039062
        k(  169) = (  -0.6250000  -0.6250000  -0.1250000), wk =   0.0039062
        k(  170) = (  -0.7500000  -0.5000000  -0.2500000), wk =   0.0039062
        k(  171) = (  -0.8750000  -0.3750000  -0.3750000), wk =   0.0039062
        k(  172) = (  -1.0000000  -0.2500000  -0.5000000), wk =   0.0039062
        k(  173) = (  -0.1250000  -1.1250000   0.3750000), wk =   0.0039062
        k(  174) = (  -0.2500000  -1.0000000   0.2500000), wk =   0.0039062
        k(  175) = (  -0.3750000  -0.8750000   0.1250000), wk =   0.0039062
        k(  176) = (  -0.5000000  -0.7500000   0.0000000), wk =   0.0039062
        k(  177) = (  -0.5000000  -0.5000000   0.0000000), wk =   0.0039062
        k(  178) = (  -0.6250000  -0.3750000  -0.1250000), wk =   0.0039062
        k(  179) = (  -0.7500000  -0.2500000  -0.2500000), wk =   0.0039062
        k(  180) = (  -0.8750000  -0.1250000  -0.3750000), wk =   0.0039062
        k(  181) = (   0.0000000  -1.0000000   0.5000000), wk =   0.0039062
        k(  182) = (  -0.1250000  -0.8750000   0.3750000), wk =   0.0039062
        k(  183) = (  -0.2500000  -0.7500000   0.2500000), wk =   0.0039062
        k(  184) = (  -0.3750000  -0.6250000   0.1250000), wk =   0.0039062
        k(  185) = (  -0.3750000  -0.3750000   0.1250000), wk =   0.0039062
        k(  186) = (  -0.5000000  -0.2500000   0.0000000), wk =   0.0039062
        k(  187) = (  -0.6250000  -0.1250000  -0.1250000), wk =   0.0039062
        k(  188) = (  -0.7500000   0.0000000  -0.2500000), wk =   0.0039062
        k(  189) = (   0.1250000  -0.8750000   0.6250000), wk =   0.0039062
        k(  190) = (   0.0000000  -0.7500000   0.5000000), wk =   0.0039062
        k(  191) = (  -0.1250000  -0.6250000   0.3750000), wk =   0.0039062
        k(  192) = (  -0.2500000  -0.5000000   0.2500000), wk =   0.0039062
        k(  193) = (  -0.3750000  -0.3750000   0.3750000), wk =   0.0039062
        k(  194) = (  -0.5000000  -0.2500000   0.2500000), wk =   0.0039062
        k(  195) = (  -0.6250000  -0.1250000   0.1250000), wk =   0.0039062
        k(  196) = (  -0.7500000   0.0000000   0.0000000), wk =   0.0039062
        k(  197) = (   0.1250000  -0.8750000   0.8750000), wk =   0.0039062
        k(  198) = (   0.0000000  -0.7500000   0.7500000), wk =   0.0039062
        k(  199) = (  -0.1250000  -0.6250000   0.6250000), wk =   0.0039062
        k(  200) = (  -0.2500000  -0.5000000   0.5000000), wk =   0.0039062
        k(  201) = (  -0.2500000  -0.2500000   0.5000000), wk =   0.0039062
        k(  202) = (  -0.3750000  -0.1250000   0.3750000), wk =   0.0039062
        k(  203) = (  -0.5000000   0.0000000   0.2500000), wk =   0.0039062
        k(  204) = (  -0.6250000   0.1250000   0.1250000), wk =   0.0039062
        k(  205) = (   0.2500000  -0.7500000   1.0000000), wk =   0.0039062
        k(  206) = (   0.1250000  -0.6250000   0.8750000), wk =   0.0039062
        k(  207) = (   0.0000000  -0.5000000   0.7500000), wk =   0.0039062
        k(  208) = (  -0.1250000  -0.3750000   0.6250000), wk =   0.0039062
        k(  209) = (  -0.1250000  -0.1250000   0.6250000), wk =   0.0039062
        k(  210) = (  -0.2500000   0.0000000   0.5000000), wk =   0.0039062
        k(  211) = (  -0.3750000   0.1250000   0.3750000), wk =   0.0039062
        k(  212) = (  -0.5000000   0.2500000   0.2500000), wk =   0.0039062
        k(  213) = (   0.3750000  -0.6250000   1.1250000), wk =   0.0039062
        k(  214) = (   0.2500000  -0.5000000   1.0000000), wk =   0.0039062
        k(  215) = (   0.1250000  -0.3750000   0.8750000), wk =   0.0039062
        k(  216) = (   0.0000000  -0.2500000   0.7500000), wk =   0.0039062
        k(  217) = (   0.0000000   0.0000000   0.7500000), wk =   0.0039062
        k(  218) = (  -0.1250000   0.1250000   0.6250000), wk =   0.0039062
        k(  219) = (  -0.2500000   0.2500000   0.5000000), wk =   0.0039062
        k(  220) = (  -0.3750000   0.3750000   0.3750000), wk =   0.0039062
        k(  221) = (   0.5000000  -0.5000000   1.2500000), wk =   0.0039062
        k(  222) = (   0.3750000  -0.3750000   1.1250000), wk =   0.0039062
        k(  223) = (   0.2500000  -0.2500000   1.0000000), wk =   0.0039062
        k(  224) = (   0.1250000  -0.1250000   0.8750000), wk =   0.0039062
        k(  225) = (  -0.8750000  -0.8750000  -0.1250000), wk =   0.0039062
        k(  226) = (  -1.0000000  -0.7500000  -0.2500000), wk =   0.0039062
        k(  227) = (  -1.1250000  -0.6250000  -0.3750000), wk =   0.0039062
        k(  228) = (  -1.2500000  -0.5000000  -0.5000000), wk =   0.0039062
        k(  229) = (  -0.3750000  -1.3750000   0.3750000), wk =   0.0039062
        k(  230) = (  -0.5000000  -1.2500000   0.2500000), wk =   0.0039062
        k(  231) = (  -0.6250000  -1.1250000   0.1250000), wk =   0.0039062
        k(  232) = (  -0.7500000  -1.0000000   0.0000000), wk =   0.0039062
        k(  233) = (  -0.7500000  -0.7500000   0.0000000), wk =   0.0039062
        k(  234) = (  -0.8750000  -0.6250000  -0.1250000), wk =   0.0039062
        k(  235) = (  -1.0000000  -0.5000000  -0.2500000), wk =   0.0039062
        k(  236) = (  -1.1250000  -0.3750000  -0.3750000), wk =   0.0039062
        k(  237) = (  -0.2500000  -1.2500000   0.5000000), wk =   0.0039062
        k(  238) = (  -0.3750000  -1.1250000   0.3750000), wk =   0.0039062
        k(  239) = (  -0.5000000  -1.0000000   0.2500000), wk =   0.0039062
        k(  240) = (  -0.6250000  -0.8750000   0.1250000), wk =   0.0039062
        k(  241) = (  -0.6250000  -0.6250000   0.1250000), wk =   0.0039062
        k(  242) = (  -0.7500000  -0.5000000   0.0000000), wk =   0.0039062
        k(  243) = (  -0.8750000  -0.3750000  -0.1250000), wk =   0.0039062
        k(  244) = (  -1.0000000  -0.2500000  -0.2500000), wk =   0.0039062
        k(  245) = (  -0.1250000  -1.1250000   0.6250000), wk =   0.0039062
        k(  246) = (  -0.2500000  -1.0000000   0.5000000), wk =   0.0039062
        k(  247) = (  -0.3750000  -0.8750000   0.3750000), wk =   0.0039062
        k(  248) = (  -0.5000000  -0.7500000   0.2500000), wk =   0.0039062
        k(  249) = (  -0.5000000  -0.5000000   0.2500000), wk =   0.0039062
        k(  250) = (  -0.6250000  -0.3750000   0.1250000), wk =   0.0039062
        k(  251) = (  -0.7500000  -0.2500000   0.0000000), wk =   0.0039062
        k(  252) = (  -0.8750000  -0.1250000  -0.1250000), wk =   0.0039062
        k(  253) = (   0.0000000  -1.0000000   0.7500000), wk =   0.0039062
        k(  254) = (  -0.1250000  -0.8750000   0.6250000), wk =   0.0039062
        k(  255) = (  -0.2500000  -0.7500000   0.5000000), wk =   0.0039062
        k(  256) = (  -0.3750000  -0.6250000   0.3750000), wk =   0.0039062
        k(  257) = (   0.5000000   0.5000000  -0.5000000), wk =   0.0039062
        k(  258) = (   0.3750000   0.6250000  -0.6250000), wk =   0.0039062
        k(  259) = (   0.2500000   0.7500000  -0.7500000), wk =   0.0039062
        k(  260) = (   0.1250000   0.8750000  -0.8750000), wk =   0.0039062
        k(  261) = (   1.0000000   0.0000000   0.0000000), wk =   0.0039062
        k(  262) = (   0.8750000   0.1250000  -0.1250000), wk =   0.0039062
        k(  263) = (   0.7500000   0.2500000  -0.2500000), wk =   0.0039062
        k(  264) = (   0.6250000   0.3750000  -0.3750000), wk =   0.0039062
        k(  265) = (   0.6250000   0.6250000  -0.3750000), wk =   0.0039062
        k(  266) = (   0.5000000   0.7500000  -0.5000000), wk =   0.0039062
        k(  267) = (   0.3750000   0.8750000  -0.6250000), wk =   0.0039062
        k(  268) = (   0.2500000   1.0000000  -0.7500000), wk =   0.0039062
        k(  269) = (   1.1250000   0.1250000   0.1250000), wk =   0.0039062
        k(  270) = (   1.0000000   0.2500000   0.0000000), wk =   0.0039062
        k(  271) = (   0.8750000   0.3750000  -0.1250000), wk =   0.0039062
        k(  272) = (   0.7500000   0.5000000  -0.2500000), wk =   0.0039062
        k(  273) = (   0.7500000   0.7500000  -0.2500000), wk =   0.0039062
        k(  274) = (   0.6250000   0.8750000  -0.3750000), wk =   0.0039062
        k(  275) = (   0.5000000   1.0000000  -0.5000000), wk =   0.0039062
        k(  276) = (   0.3750000   1.1250000  -0.6250000), wk =   0.0039062
        k(  277) = (   1.2500000   0.2500000   0.2500000), wk =   0.0039062
        k(  278) = (   1.1250000   0.3750000   0.1250000), wk =   0.0039062
        k(  279) = (   1.0000000   0.5000000   0.0000000), wk =   0.0039062
        k(  280) = (   0.8750000   0.6250000  -0.1250000), wk =   0.0039062
        k(  281) = (   0.8750000   0.8750000  -0.1250000), wk =   0.0039062
        k(  282) = (   0.7500000   1.0000000  -0.2500000), wk =   0.0039062
        k(  283) = (   0.6250000   1.1250000  -0.3750000), wk =   0.0039062
        k(  284) = (   0.5000000   1.2500000  -0.5000000), wk =   0.0039062
        k(  285) = (   1.3750000   0.3750000   0.3750000), wk =   0.0039062
        k(  286) = (   1.2500000   0.5000000   0.2500000), wk =   0.0039062
        k(  287) = (   1.1250000   0.6250000   0.1250000), wk =   0.0039062
        k(  288) = (   1.0000000   0.7500000   0.0000000), wk =   0.0039062
        k(  289) = (   0.0000000   0.0000000  -1.0000000), wk =   0.0039062
        k(  290) = (  -0.1250000   0.1250000  -1.1250000), wk =   0.0039062
        k(  291) = (  -0.2500000   0.2500000  -1.2500000), wk =   0.0039062
        k(  292) = (  -0.3750000   0.3750000  -1.3750000), wk =   0.0039062
        k(  293) = (   0.5000000  -0.5000000  -0.5000000), wk =   0.0039062
        k(  294) = (   0.3750000  -0.3750000  -0.6250000), wk =   0.0039062
        k(  295) = (   0.2500000  -0.2500000  -0.7500000), wk =   0.0039062
        k(  296) = (   0.1250000  -0.1250000  -0.8750000), wk =   0.0039062
        k(  297) = (   0.1250000   0.1250000  -0.8750000), wk =   0.0039062
        k(  298) = (   0.0000000   0.2500000  -1.0000000), wk =   0.0039062
        k(  299) = (  -0.1250000   0.3750000  -1.1250000), wk =   0.0039062
        k(  300) = (  -0.2500000   0.5000000  -1.2500000), wk =   0.0039062
        k(  301) = (   0.6250000  -0.3750000  -0.3750000), wk =   0.0039062
        k(  302) = (   0.5000000  -0.2500000  -0.5000000), wk =   0.0039062
        k(  303) = (   0.3750000  -0.1250000  -0.6250000), wk =   0.0039062
        k(  304) = (   0.2500000   0.0000000  -0.7500000), wk =   0.0039062
        k(  305) = (   0.2500000   0.2500000  -0.7500000), wk =   0.0039062
        k(  306) = (   0.1250000   0.3750000  -0.8750000), wk =   0.0039062
        k(  307) = (   0.0000000   0.5000000  -1.0000000), wk =   0.0039062
        k(  308) = (  -0.1250000   0.6250000  -1.1250000), wk =   0.0039062
        k(  309) = (   0.7500000  -0.2500000  -0.2500000), wk =   0.0039062
        k(  310) = (   0.6250000  -0.1250000  -0.3750000), wk =   0.0039062
        k(  311) = (   0.5000000   0.0000000  -0.5000000), wk =   0.0039062
        k(  312) = (   0.3750000   0.1250000  -0.6250000), wk =   0.0039062
        k(  313) = (   0.3750000   0.3750000  -0.6250000), wk =   0.0039062
        k(  314) = (   0.2500000   0.5000000  -0.7500000), wk =   0.0039062
        k(  315) = (   0.1250000   0.6250000  -0.8750000), wk =   0.0039062
        k(  316) = (   0.0000000   0.7500000  -1.0000000), wk =   0.0039062
        k(  317) = (   0.8750000  -0.1250000  -0.1250000), wk =   0.0039062
        k(  318) = (   0.7500000   0.0000000  -0.2500000), wk =   0.0039062
        k(  319) = (   0.6250000   0.1250000  -0.3750000), wk =   0.0039062
        k(  320) = (   0.5000000   0.2500000  -0.5000000), wk =   0.0039062
        k(  321) = (   0.3750000   0.3750000  -0.3750000), wk =   0.0039062
        k(  322) = (   0.2500000   0.5000000  -0.5000000), wk =   0.0039062
        k(  323) = (   0.1250000   0.6250000  -0.6250000), wk =   0.0039062
        k(  324) = (   0.0000000   0.7500000  -0.7500000), wk =   0.0039062
        k(  325) = (   0.8750000  -0.1250000   0.1250000), wk =   0.0039062
        k(  326) = (   0.7500000   0.0000000   0.0000000), wk =   0.0039062
        k(  327) = (   0.6250000   0.1250000  -0.1250000), wk =   0.0039062
        k(  328) = (   0.5000000   0.2500000  -0.2500000), wk =   0.0039062
        k(  329) = (   0.5000000   0.5000000  -0.2500000), wk =   0.0039062
        k(  330) = (   0.3750000   0.6250000  -0.3750000), wk =   0.0039062
        k(  331) = (   0.2500000   0.7500000  -0.5000000), wk =   0.0039062
        k(  332) = (   0.1250000   0.8750000  -0.6250000), wk =   0.0039062
        k(  333) = (   1.0000000   0.0000000   0.2500000), wk =   0.0039062
        k(  334) = (   0.8750000   0.1250000   0.1250000), wk =   0.0039062
        k(  335) = (   0.7500000   0.2500000   0.0000000), wk =   0.0039062
        k(  336) = (   0.6250000   0.3750000  -0.1250000), wk =   0.0039062
        k(  337) = (   0.6250000   0.6250000  -0.1250000), wk =   0.0039062
        k(  338) = (   0.5000000   0.7500000  -0.2500000), wk =   0.0039062
        k(  339) = (   0.3750000   0.8750000  -0.3750000), wk =   0.0039062
        k(  340) = (   0.2500000   1.0000000  -0.5000000), wk =   0.0039062
        k(  341) = (   1.1250000   0.1250000   0.3750000), wk =   0.0039062
        k(  342) = (   1.0000000   0.2500000   0.2500000), wk =   0.0039062
        k(  343) = (   0.8750000   0.3750000   0.1250000), wk =   0.0039062
        k(  344) = (   0.7500000   0.5000000   0.0000000), wk =   0.0039062
        k(  345) = (   0.7500000   0.7500000   0.0000000), wk =   0.0039062
        k(  346) = (   0.6250000   0.8750000  -0.1250000), wk =   0.0039062
        k(  347) = (   0.5000000   1.0000000  -0.2500000), wk =   0.0039062
        k(  348) = (   0.3750000   1.1250000  -0.3750000), wk =   0.0039062
        k(  349) = (   1.2500000   0.2500000   0.5000000), wk =   0.0039062
        k(  350) = (   1.1250000   0.3750000   0.3750000), wk =   0.0039062
        k(  351) = (   1.0000000   0.5000000   0.2500000), wk =   0.0039062
        k(  352) = (   0.8750000   0.6250000   0.1250000), wk =   0.0039062
        k(  353) = (  -0.1250000  -0.1250000  -0.8750000), wk =   0.0039062
        k(  354) = (  -0.2500000   0.0000000  -1.0000000), wk =   0.0039062
        k(  355) = (  -0.3750000   0.1250000  -1.1250000), wk =   0.0039062
        k(  356) = (  -0.5000000   0.2500000  -1.2500000), wk =   0.0039062
        k(  357) = (   0.3750000  -0.6250000  -0.3750000), wk =   0.0039062
        k(  358) = (   0.2500000  -0.5000000  -0.5000000), wk =   0.0039062
        k(  359) = (   0.1250000  -0.3750000  -0.6250000), wk =   0.0039062
        k(  360) = (   0.0000000  -0.2500000  -0.7500000), wk =   0.0039062
        k(  361) = (   0.0000000   0.0000000  -0.7500000), wk =   0.0039062
        k(  362) = (  -0.1250000   0.1250000  -0.8750000), wk =   0.0039062
        k(  363) = (  -0.2500000   0.2500000  -1.0000000), wk =   0.0039062
        k(  364) = (  -0.3750000   0.3750000  -1.1250000), wk =   0.0039062
        k(  365) = (   0.5000000  -0.5000000  -0.2500000), wk =   0.0039062
        k(  366) = (   0.3750000  -0.3750000  -0.3750000), wk =   0.0039062
        k(  367) = (   0.2500000  -0.2500000  -0.5000000), wk =   0.0039062
        k(  368) = (   0.1250000  -0.1250000  -0.6250000), wk =   0.0039062
        k(  369) = (   0.1250000   0.1250000  -0.6250000), wk =   0.0039062
        k(  370) = (   0.0000000   0.2500000  -0.7500000), wk =   0.0039062
        k(  371) = (  -0.1250000   0.3750000  -0.8750000), wk =   0.0039062
        k(  372) = (  -0.2500000   0.5000000  -1.0000000), wk =   0.0039062
        k(  373) = (   0.6250000  -0.3750000  -0.1250000), wk =   0.0039062
        k(  374) = (   0.5000000  -0.2500000  -0.2500000), wk =   0.0039062
        k(  375) = (   0.3750000  -0.1250000  -0.3750000), wk =   0.0039062
        k(  376) = (   0.2500000   0.0000000  -0.5000000), wk =   0.0039062
        k(  377) = (   0.2500000   0.2500000  -0.5000000), wk =   0.0039062
        k(  378) = (   0.1250000   0.3750000  -0.6250000), wk =   0.0039062
        k(  379) = (   0.0000000   0.5000000  -0.7500000), wk =   0.0039062
        k(  380) = (  -0.1250000   0.6250000  -0.8750000), wk =   0.0039062
        k(  381) = (   0.7500000  -0.2500000   0.0000000), wk =   0.0039062
        k(  382) = (   0.6250000  -0.1250000  -0.1250000), wk =   0.0039062
        k(  383) = (   0.5000000   0.0000000  -0.2500000), wk =   0.0039062
        k(  384) = (   0.3750000   0.1250000  -0.3750000), wk =   0.0039062
        k(  385) = (   0.2500000   0.2500000  -0.2500000), wk =   0.0039062
        k(  386) = (   0.1250000   0.3750000  -0.3750000), wk =   0.0039062
        k(  387) = (   0.0000000   0.5000000  -0.5000000), wk =   0.0039062
        k(  388) = (  -0.1250000   0.6250000  -0.6250000), wk =   0.0039062
        k(  389) = (   0.7500000  -0.2500000   0.2500000), wk =   0.0039062
        k(  390) = (   0.6250000  -0.1250000   0.1250000), wk =   0.0039062
        k(  391) = (   0.5000000   0.0000000   0.0000000), wk =   0.0039062
        k(  392) = (   0.3750000   0.1250000  -0.1250000), wk =   0.0039062
        k(  393) = (   0.3750000   0.3750000  -0.1250000), wk =   0.0039062
        k(  394) = (   0.2500000   0.5000000  -0.2500000), wk =   0.0039062
        k(  395) = (   0.1250000   0.6250000  -0.3750000), wk =   0.0039062
        k(  396) = (   0.0000000   0.7500000  -0.5000000), wk =   0.0039062
        k(  397) = (   0.8750000  -0.1250000   0.3750000), wk =   0.0039062
        k(  398) = (   0.7500000   0.0000000   0.2500000), wk =   0.0039062
        k(  399) = (   0.6250000   0.1250000   0.1250000), wk =   0.0039062
        k(  400) = (   0.5000000   0.2500000   0.0000000), wk =   0.0039062
        k(  401) = (   0.5000000   0.5000000   0.0000000), wk =   0.0039062
        k(  402) = (   0.3750000   0.6250000  -0.1250000), wk =   0.0039062
        k(  403) = (   0.2500000   0.7500000  -0.2500000), wk =   0.0039062
        k(  404) = (   0.1250000   0.8750000  -0.3750000), wk =   0.0039062
        k(  405) = (   1.0000000   0.0000000   0.5000000), wk =   0.0039062
        k(  406) = (   0.8750000   0.1250000   0.3750000), wk =   0.0039062
        k(  407) = (   0.7500000   0.2500000   0.2500000), wk =   0.0039062
        k(  408) = (   0.6250000   0.3750000   0.1250000), wk =   0.0039062
        k(  409) = (   0.6250000   0.6250000   0.1250000), wk =   0.0039062
        k(  410) = (   0.5000000   0.7500000   0.0000000), wk =   0.0039062
        k(  411) = (   0.3750000   0.8750000  -0.1250000), wk =   0.0039062
        k(  412) = (   0.2500000   1.0000000  -0.2500000), wk =   0.0039062
        k(  413) = (   1.1250000   0.1250000   0.6250000), wk =   0.0039062
        k(  414) = (   1.0000000   0.2500000   0.5000000), wk =   0.0039062
        k(  415) = (   0.8750000   0.3750000   0.3750000), wk =   0.0039062
        k(  416) = (   0.7500000   0.5000000   0.2500000), wk =   0.0039062
        k(  417) = (  -0.2500000  -0.2500000  -0.7500000), wk =   0.0039062
        k(  418) = (  -0.3750000  -0.1250000  -0.8750000), wk =   0.0039062
        k(  419) = (  -0.5000000   0.0000000  -1.0000000), wk =   0.0039062
        k(  420) = (  -0.6250000   0.1250000  -1.1250000), wk =   0.0039062
        k(  421) = (   0.2500000  -0.7500000  -0.2500000), wk =   0.0039062
        k(  422) = (   0.1250000  -0.6250000  -0.3750000), wk =   0.0039062
        k(  423) = (   0.0000000  -0.5000000  -0.5000000), wk =   0.0039062
        k(  424) = (  -0.1250000  -0.3750000  -0.6250000), wk =   0.0039062
        k(  425) = (  -0.1250000  -0.1250000  -0.6250000), wk =   0.0039062
        k(  426) = (  -0.2500000   0.0000000  -0.7500000), wk =   0.0039062
        k(  427) = (  -0.3750000   0.1250000  -0.8750000), wk =   0.0039062
        k(  428) = (  -0.5000000   0.2500000  -1.0000000), wk =   0.0039062
        k(  429) = (   0.3750000  -0.6250000  -0.1250000), wk =   0.0039062
        k(  430) = (   0.2500000  -0.5000000  -0.2500000), wk =   0.0039062
        k(  431) = (   0.1250000  -0.3750000  -0.3750000), wk =   0.0039062
        k(  432) = (   0.0000000  -0.2500000  -0.5000000), wk =   0.0039062
        k(  433) = (   0.0000000   0.0000000  -0.5000000), wk =   0.0039062
        k(  434) = (  -0.1250000   0.1250000  -0.6250000), wk =   0.0039062
        k(  435) = (  -0.2500000   0.2500000  -0.7500000), wk =   0.0039062
        k(  436) = (  -0.3750000   0.3750000  -0.8750000), wk =   0.0039062
        k(  437) = (   0.5000000  -0.5000000   0.0000000), wk =   0.0039062
        k(  438) = (   0.3750000  -0.3750000  -0.1250000), wk =   0.0039062
        k(  439) = (   0.2500000  -0.2500000  -0.2500000), wk =   0.0039062
        k(  440) = (   0.1250000  -0.1250000  -0.3750000), wk =   0.0039062
        k(  441) = (   0.1250000   0.1250000  -0.3750000), wk =   0.0039062
        k(  442) = (   0.0000000   0.2500000  -0.5000000), wk =   0.0039062
        k(  443) = (  -0.1250000   0.3750000  -0.6250000), wk =   0.0039062
        k(  444) = (  -0.2500000   0.5000000  -0.7500000), wk =   0.0039062
        k(  445) = (   0.6250000  -0.3750000   0.1250000), wk =   0.0039062
        k(  446) = (   0.5000000  -0.2500000   0.0000000), wk =   0.0039062
        k(  447) = (   0.3750000  -0.1250000  -0.1250000), wk =   0.0039062
        k(  448) = (   0.2500000   0.0000000  -0.2500000), wk =   0.0039062
        k(  449) = (   0.1250000   0.1250000  -0.1250000), wk =   0.0039062
        k(  450) = (   0.0000000   0.2500000  -0.2500000), wk =   0.0039062
        k(  451) = (  -0.1250000   0.3750000  -0.3750000), wk =   0.0039062
        k(  452) = (  -0.2500000   0.5000000  -0.5000000), wk =   0.0039062
        k(  453) = (   0.6250000  -0.3750000   0.3750000), wk =   0.0039062
        k(  454) = (   0.5000000  -0.2500000   0.2500000), wk =   0.0039062
        k(  455) = (   0.3750000  -0.1250000   0.1250000), wk =   0.0039062
        k(  456) = (   0.2500000   0.0000000   0.0000000), wk =   0.0039062
        k(  457) = (   0.2500000   0.2500000   0.0000000), wk =   0.0039062
        k(  458) = (   0.1250000   0.3750000  -0.1250000), wk =   0.0039062
        k(  459) = (   0.0000000   0.5000000  -0.2500000), wk =   0.0039062
        k(  460) = (  -0.1250000   0.6250000  -0.3750000), wk =   0.0039062
        k(  461) = (   0.7500000  -0.2500000   0.5000000), wk =   0.0039062
        k(  462) = (   0.6250000  -0.1250000   0.3750000), wk =   0.0039062
        k(  463) = (   0.5000000   0.0000000   0.2500000), wk =   0.0039062
        k(  464) = (   0.3750000   0.1250000   0.1250000), wk =   0.0039062
        k(  465) = (   0.3750000   0.3750000   0.1250000), wk =   0.0039062
        k(  466) = (   0.2500000   0.5000000   0.0000000), wk =   0.0039062
        k(  467) = (   0.1250000   0.6250000  -0.1250000), wk =   0.0039062
        k(  468) = (   0.0000000   0.7500000  -0.2500000), wk =   0.0039062
        k(  469) = (   0.8750000  -0.1250000   0.6250000), wk =   0.0039062
        k(  470) = (   0.7500000   0.0000000   0.5000000), wk =   0.0039062
        k(  471) = (   0.6250000   0.1250000   0.3750000), wk =   0.0039062
        k(  472) = (   0.5000000   0.2500000   0.2500000), wk =   0.0039062
        k(  473) = (   0.5000000   0.5000000   0.2500000), wk =   0.0039062
        k(  474) = (   0.3750000   0.6250000   0.1250000), wk =   0.0039062
        k(  475) = (   0.2500000   0.7500000   0.0000000), wk =   0.0039062
        k(  476) = (   0.1250000   0.8750000  -0.1250000), wk =   0.0039062
        k(  477) = (   1.0000000   0.0000000   0.7500000), wk =   0.0039062
        k(  478) = (   0.8750000   0.1250000   0.6250000), wk =   0.0039062
        k(  479) = (   0.7500000   0.2500000   0.5000000), wk =   0.0039062
        k(  480) = (   0.6250000   0.3750000   0.3750000), wk =   0.0039062
        k(  481) = (  -0.3750000  -0.3750000  -0.6250000), wk =   0.0039062
        k(  482) = (  -0.5000000  -0.2500000  -0.7500000), wk =   0.0039062
        k(  483) = (  -0.6250000  -0.1250000  -0.8750000), wk =   0.0039062
        k(  484) = (  -0.7500000   0.0000000  -1.0000000), wk =   0.0039062
        k(  485) = (   0.1250000  -0.8750000  -0.1250000), wk =   0.0039062
        k(  486) = (   0.0000000  -0.7500000  -0.2500000), wk =   0.0039062
        k(  487) = (  -0.1250000  -0.6250000  -0.3750000), wk =   0.0039062
        k(  488) = (  -0.2500000  -0.5000000  -0.5000000), wk =   0.0039062
        k(  489) = (  -0.2500000  -0.2500000  -0.5000000), wk =   0.0039062
        k(  490) = (  -0.3750000  -0.1250000  -0.6250000), wk =   0.0039062
        k(  491) = (  -0.5000000   0.0000000  -0.7500000), wk =   0.0039062
        k(  492) = (  -0.6250000   0.1250000  -0.8750000), wk =   0.0039062
        k(  493) = (   0.2500000  -0.7500000   0.0000000), wk =   0.0039062
        k(  494) = (   0.1250000  -0.6250000  -0.1250000), wk =   0.0039062
        k(  495) = (   0.0000000  -0.5000000  -0.2500000), wk =   0.0039062
        k(  496) = (  -0.1250000  -0.3750000  -0.3750000), wk =   0.0039062
        k(  497) = (  -0.1250000  -0.1250000  -0.3750000), wk =   0.0039062
        k(  498) = (  -0.2500000   0.0000000  -0.5000000), wk =   0.0039062
        k(  499) = (  -0.3750000   0.1250000  -0.6250000), wk =   0.0039062
        k(  500) = (  -0.5000000   0.2500000  -0.7500000), wk =   0.0039062
        k(  501) = (   0.3750000  -0.6250000   0.1250000), wk =   0.0039062
        k(  502) = (   0.2500000  -0.5000000   0.0000000), wk =   0.0039062
        k(  503) = (   0.1250000  -0.3750000  -0.1250000), wk =   0.0039062
        k(  504) = (   0.0000000  -0.2500000  -0.2500000), wk =   0.0039062
        k(  505) = (   0.0000000   0.0000000  -0.2500000), wk =   0.0039062
        k(  506) = (  -0.1250000   0.1250000  -0.3750000), wk =   0.0039062
        k(  507) = (  -0.2500000   0.2500000  -0.5000000), wk =   0.0039062
        k(  508) = (  -0.3750000   0.3750000  -0.6250000), wk =   0.0039062
        k(  509) = (   0.5000000  -0.5000000   0.2500000), wk =   0.0039062
        k(  510) = (   0.3750000  -0.3750000   0.1250000), wk =   0.0039062
        k(  511) = (   0.2500000  -0.2500000   0.0000000), wk =   0.0039062
        k(  512) = (   0.1250000  -0.1250000  -0.1250000), wk =   0.0039062

                       cryst. coord.
        k(    1) = (   0.0000000   0.0000000   0.0000000), wk =   0.0039062
        k(    2) = (   0.0000000   0.0000000   0.1250000), wk =   0.0039062
        k(    3) = (   0.0000000   0.0000000   0.2500000), wk =   0.0039062
        k(    4) = (   0.0000000   0.0000000   0.3750000), wk =   0.0039062
        k(    5) = (   0.0000000   0.0000000  -0.5000000), wk =   0.0039062
        k(    6) = (   0.0000000   0.0000000  -0.3750000), wk =   0.0039062
        k(    7) = (   0.0000000   0.0000000  -0.2500000), wk =   0.0039062
        k(    8) = (   0.0000000   0.0000000  -0.1250000), wk =   0.0039062
        k(    9) = (   0.0000000   0.1250000   0.0000000), wk =   0.0039062
        k(   10) = (   0.0000000   0.1250000   0.1250000), wk =   0.0039062
        k(   11) = (   0.0000000   0.1250000   0.2500000), wk =   0.0039062
        k(   12) = (   0.0000000   0.1250000   0.3750000), wk =   0.0039062
        k(   13) = (   0.0000000   0.1250000  -0.5000000), wk =   0.0039062
        k(   14) = (   0.0000000   0.1250000  -0.3750000), wk =   0.0039062
        k(   15) = (   0.0000000   0.1250000  -0.2500000), wk =   0.0039062
        k(   16) = (   0.0000000   0.1250000  -0.1250000), wk =   0.0039062
        k(   17) = (   0.0000000   0.2500000   0.0000000), wk =   0.0039062
        k(   18) = (   0.0000000   0.2500000   0.1250000), wk =   0.0039062
        k(   19) = (   0.0000000   0.2500000   0.2500000), wk =   0.0039062
        k(   20) = (   0.0000000   0.2500000   0.3750000), wk =   0.0039062
        k(   21) = (   0.0000000   0.2500000  -0.5000000), wk =   0.0039062
        k(   22) = (   0.0000000   0.2500000  -0.3750000), wk =   0.0039062
        k(   23) = (   0.0000000   0.2500000  -0.2500000), wk =   0.0039062
        k(   24) = (   0.0000000   0.2500000  -0.1250000), wk =   0.0039062
        k(   25) = (   0.0000000   0.3750000   0.0000000), wk =   0.0039062
        k(   26) = (   0.0000000   0.3750000   0.1250000), wk =   0.0039062
        k(   27) = (   0.0000000   0.3750000   0.2500000), wk =   0.0039062
        k(   28) = (   0.0000000   0.3750000   0.3750000), wk =   0.0039062
        k(   29) = (   0.0000000   0.3750000  -0.5000000), wk =   0.0039062
        k(   30) = (   0.0000000   0.3750000  -0.3750000), wk =   0.0039062
        k(   31) = (   0.0000000   0.3750000  -0.2500000), wk =   0.0039062
        k(   32) = (   0.0000000   0.3750000  -0.1250000), wk =   0.0039062
        k(   33) = (   0.0000000  -0.5000000   0.0000000), wk =   0.0039062
        k(   34) = (   0.0000000  -0.5000000   0.1250000), wk =   0.0039062
        k(   35) = (   0.0000000  -0.5000000   0.2500000), wk =   0.0039062
        k(   36) = (   0.0000000  -0.5000000   0.3750000), wk =   0.0039062
        k(   37) = (   0.0000000  -0.5000000  -0.5000000), wk =   0.0039062
        k(   38) = (   0.0000000  -0.5000000  -0.3750000), wk =   0.0039062
        k(   39) = (   0.0000000  -0.5000000  -0.2500000), wk =   0.0039062
        k(   40) = (   0.0000000  -0.5000000  -0.1250000), wk =   0.0039062
        k(   41) = (   0.0000000  -0.3750000   0.0000000), wk =   0.0039062
        k(   42) = (   0.0000000  -0.3750000   0.1250000), wk =   0.0039062
        k(   43) = (   0.0000000  -0.3750000   0.2500000), wk =   0.0039062
        k(   44) = (   0.0000000  -0.3750000   0.3750000), wk =   0.0039062
        k(   45) = (   0.0000000  -0.3750000  -0.5000000), wk =   0.0039062
        k(   46) = (   0.0000000  -0.3750000  -0.3750000), wk =   0.0039062
        k(   47) = (   0.0000000  -0.3750000  -0.2500000), wk =   0.0039062
        k(   48) = (   0.0000000  -0.3750000  -0.1250000), wk =   0.0039062
        k(   49) = (   0.0000000  -0.2500000   0.0000000), wk =   0.0039062
        k(   50) = (   0.0000000  -0.2500000   0.1250000), wk =   0.0039062
        k(   51) = (   0.0000000  -0.2500000   0.2500000), wk =   0.0039062
        k(   52) = (   0.0000000  -0.2500000   0.3750000), wk =   0.0039062
        k(   53) = (   0.0000000  -0.2500000  -0.5000000), wk =   0.0039062
        k(   54) = (   0.0000000  -0.2500000  -0.3750000), wk =   0.0039062
        k(   55) = (   0.0000000  -0.2500000  -0.2500000), wk =   0.0039062
        k(   56) = (   0.0000000  -0.2500000  -0.1250000), wk =   0.0039062
        k(   57) = (   0.0000000  -0.1250000   0.0000000), wk =   0.0039062
        k(   58) = (   0.0000000  -0.1250000   0.1250000), wk =   0.0039062
        k(   59) = (   0.0000000  -0.1250000   0.2500000), wk =   0.0039062
        k(   60) = (   0.0000000  -0.1250000   0.3750000), wk =   0.0039062
        k(   61) = (   0.0000000  -0.1250000  -0.5000000), wk =   0.0039062
        k(   62) = (   0.0000000  -0.1250000  -0.3750000), wk =   0.0039062
        k(   63) = (   0.0000000  -0.1250000  -0.2500000), wk =   0.0039062
        k(   64) = (   0.0000000  -0.1250000  -0.1250000), wk =   0.0039062
        k(   65) = (   0.1250000   0.0000000   0.0000000), wk =   0.0039062
        k(   66) = (   0.1250000   0.0000000   0.1250000), wk =   0.0039062
        k(   67) = (   0.1250000   0.0000000   0.2500000), wk =   0.0039062
        k(   68) = (   0.1250000   0.0000000   0.3750000), wk =   0.0039062
        k(   69) = (   0.1250000   0.0000000  -0.5000000), wk =   0.0039062
        k(   70) = (   0.1250000   0.0000000  -0.3750000), wk =   0.0039062
        k(   71) = (   0.1250000   0.0000000  -0.2500000), wk =   0.0039062
        k(   72) = (   0.1250000   0.0000000  -0.1250000), wk =   0.0039062
        k(   73) = (   0.1250000   0.1250000   0.0000000), wk =   0.0039062
        k(   74) = (   0.1250000   0.1250000   0.1250000), wk =   0.0039062
        k(   75) = (   0.1250000   0.1250000   0.2500000), wk =   0.0039062
        k(   76) = (   0.1250000   0.1250000   0.3750000), wk =   0.0039062
        k(   77) = (   0.1250000   0.1250000  -0.5000000), wk =   0.0039062
        k(   78) = (   0.1250000   0.1250000  -0.3750000), wk =   0.0039062
        k(   79) = (   0.1250000   0.1250000  -0.2500000), wk =   0.0039062
        k(   80) = (   0.1250000   0.1250000  -0.1250000), wk =   0.0039062
        k(   81) = (   0.1250000   0.2500000   0.0000000), wk =   0.0039062
        k(   82) = (   0.1250000   0.2500000   0.1250000), wk =   0.0039062
        k(   83) = (   0.1250000   0.2500000   0.2500000), wk =   0.0039062
        k(   84) = (   0.1250000   0.2500000   0.3750000), wk =   0.0039062
        k(   85) = (   0.1250000   0.2500000  -0.5000000), wk =   0.0039062
        k(   86) = (   0.1250000   0.2500000  -0.3750000), wk =   0.0039062
        k(   87) = (   0.1250000   0.2500000  -0.2500000), wk =   0.0039062
        k(   88) = (   0.1250000   0.2500000  -0.1250000), wk =   0.0039062
        k(   89) = (   0.1250000   0.3750000   0.0000000), wk =   0.0039062
        k(   90) = (   0.1250000   0.3750000   0.1250000), wk =   0.0039062
        k(   91) = (   0.1250000   0.3750000   0.2500000), wk =   0.0039062
        k(   92) = (   0.1250000   0.3750000   0.3750000), wk =   0.0039062
        k(   93) = (   0.1250000   0.3750000  -0.5000000), wk =   0.0039062
        k(   94) = (   0.1250000   0.3750000  -0.3750000), wk =   0.0039062
        k(   95) = (   0.1250000   0.3750000  -0.2500000), wk =   0.0039062
        k(   96) = (   0.1250000   0.3750000  -0.1250000), wk =   0.0039062
        k(   97) = (   0.1250000  -0.5000000   0.0000000), wk =   0.0039062
        k(   98) = (   0.1250000  -0.5000000   0.1250000), wk =   0.0039062
        k(   99) = (   0.1250000  -0.5000000   0.2500000), wk =   0.0039062
        k(  100) = (   0.1250000  -0.5000000   0.3750000), wk =   0.0039062
        k(  101) = (   0.1250000  -0.5000000  -0.5000000), wk =   0.0039062
        k(  102) = (   0.1250000  -0.5000000  -0.3750000), wk =   0.0039062
        k(  103) = (   0.1250000  -0.5000000  -0.2500000), wk =   0.0039062
        k(  104) = (   0.1250000  -0.5000000  -0.1250000), wk =   0.0039062
        k(  105) = (   0.1250000  -0.3750000   0.0000000), wk =   0.0039062
        k(  106) = (   0.1250000  -0.3750000   0.1250000), wk =   0.0039062
        k(  107) = (   0.1250000  -0.3750000   0.2500000), wk =   0.0039062
        k(  108) = (   0.1250000  -0.3750000   0.3750000), wk =   0.0039062
        k(  109) = (   0.1250000  -0.3750000  -0.5000000), wk =   0.0039062
        k(  110) = (   0.1250000  -0.3750000  -0.3750000), wk =   0.0039062
        k(  111) = (   0.1250000  -0.3750000  -0.2500000), wk =   0.0039062
        k(  112) = (   0.1250000  -0.3750000  -0.1250000), wk =   0.0039062
        k(  113) = (   0.1250000  -0.2500000   0.0000000), wk =   0.0039062
        k(  114) = (   0.1250000  -0.2500000   0.1250000), wk =   0.0039062
        k(  115) = (   0.1250000  -0.2500000   0.2500000), wk =   0.0039062
        k(  116) = (   0.1250000  -0.2500000   0.3750000), wk =   0.0039062
        k(  117) = (   0.1250000  -0.2500000  -0.5000000), wk =   0.0039062
        k(  118) = (   0.1250000  -0.2500000  -0.3750000), wk =   0.0039062
        k(  119) = (   0.1250000  -0.2500000  -0.2500000), wk =   0.0039062
        k(  120) = (   0.1250000  -0.2500000  -0.1250000), wk =   0.0039062
        k(  121) = (   0.1250000  -0.1250000   0.0000000), wk =   0.0039062
        k(  122) = (   0.1250000  -0.1250000   0.1250000), wk =   0.0039062
        k(  123) = (   0.1250000  -0.1250000   0.2500000), wk =   0.0039062
        k(  124) = (   0.1250000  -0.1250000   0.3750000), wk =   0.0039062
        k(  125) = (   0.1250000  -0.1250000  -0.5000000), wk =   0.0039062
        k(  126) = (   0.1250000  -0.1250000  -0.3750000), wk =   0.0039062
        k(  127) = (   0.1250000  -0.1250000  -0.2500000), wk =   0.0039062
        k(  128) = (   0.1250000  -0.1250000  -0.1250000), wk =   0.0039062
        k(  129) = (   0.2500000   0.0000000   0.0000000), wk =   0.0039062
        k(  130) = (   0.2500000   0.0000000   0.1250000), wk =   0.0039062
        k(  131) = (   0.2500000   0.0000000   0.2500000), wk =   0.0039062
        k(  132) = (   0.2500000   0.0000000   0.3750000), wk =   0.0039062
        k(  133) = (   0.2500000   0.0000000  -0.5000000), wk =   0.0039062
        k(  134) = (   0.2500000   0.0000000  -0.3750000), wk =   0.0039062
        k(  135) = (   0.2500000   0.0000000  -0.2500000), wk =   0.0039062
        k(  136) = (   0.2500000   0.0000000  -0.1250000), wk =   0.0039062
        k(  137) = (   0.2500000   0.1250000   0.0000000), wk =   0.0039062
        k(  138) = (   0.2500000   0.1250000   0.1250000), wk =   0.0039062
        k(  139) = (   0.2500000   0.1250000   0.2500000), wk =   0.0039062
        k(  140) = (   0.2500000   0.1250000   0.3750000), wk =   0.0039062
        k(  141) = (   0.2500000   0.1250000  -0.5000000), wk =   0.0039062
        k(  142) = (   0.2500000   0.1250000  -0.3750000), wk =   0.0039062
        k(  143) = (   0.2500000   0.1250000  -0.2500000), wk =   0.0039062
        k(  144) = (   0.2500000   0.1250000  -0.1250000), wk =   0.0039062
        k(  145) = (   0.2500000   0.2500000   0.0000000), wk =   0.0039062
        k(  146) = (   0.2500000   0.2500000   0.1250000), wk =   0.0039062
        k(  147) = (   0.2500000   0.2500000   0.2500000), wk =   0.0039062
        k(  148) = (   0.2500000   0.2500000   0.3750000), wk =   0.0039062
        k(  149) = (   0.2500000   0.2500000  -0.5000000), wk =   0.0039062
        k(  150) = (   0.2500000   0.2500000  -0.3750000), wk =   0.0039062
        k(  151) = (   0.2500000   0.2500000  -0.2500000), wk =   0.0039062
        k(  152) = (   0.2500000   0.2500000  -0.1250000), wk =   0.0039062
        k(  153) = (   0.2500000   0.3750000   0.0000000), wk =   0.0039062
        k(  154) = (   0.2500000   0.3750000   0.1250000), wk =   0.0039062
        k(  155) = (   0.2500000   0.3750000   0.2500000), wk =   0.0039062
        k(  156) = (   0.2500000   0.3750000   0.3750000), wk =   0.0039062
        k(  157) = (   0.2500000   0.3750000  -0.5000000), wk =   0.0039062
        k(  158) = (   0.2500000   0.3750000  -0.3750000), wk =   0.0039062
        k(  159) = (   0.2500000   0.3750000  -0.2500000), wk =   0.0039062
        k(  160) = (   0.2500000   0.3750000  -0.1250000), wk =   0.0039062
        k(  161) = (   0.2500000  -0.5000000   0.0000000), wk =   0.0039062
        k(  162) = (   0.2500000  -0.5000000   0.1250000), wk =   0.0039062
        k(  163) = (   0.2500000  -0.5000000   0.2500000), wk =   0.0039062
        k(  164) = (   0.2500000  -0.5000000   0.3750000), wk =   0.0039062
        k(  165) = (   0.2500000  -0.5000000  -0.5000000), wk =   0.0039062
        k(  166) = (   0.2500000  -0.5000000  -0.3750000), wk =   0.0039062
        k(  167) = (   0.2500000  -0.5000000  -0.2500000), wk =   0.0039062
        k(  168) = (   0.2500000  -0.5000000  -0.1250000), wk =   0.0039062
        k(  169) = (   0.2500000  -0.3750000   0.0000000), wk =   0.0039062
        k(  170) = (   0.2500000  -0.3750000   0.1250000), wk =   0.0039062
        k(  171) = (   0.2500000  -0.3750000   0.2500000), wk =   0.0039062
        k(  172) = (   0.2500000  -0.3750000   0.3750000), wk =   0.0039062
        k(  173) = (   0.2500000  -0.3750000  -0.5000000), wk =   0.0039062
        k(  174) = (   0.2500000  -0.3750000  -0.3750000), wk =   0.0039062
        k(  175) = (   0.2500000  -0.3750000  -0.2500000), wk =   0.0039062
        k(  176) = (   0.2500000  -0.3750000  -0.1250000), wk =   0.0039062
        k(  177) = (   0.2500000  -0.2500000   0.0000000), wk =   0.0039062
        k(  178) = (   0.2500000  -0.2500000   0.1250000), wk =   0.0039062
        k(  179) = (   0.2500000  -0.2500000   0.2500000), wk =   0.0039062
        k(  180) = (   0.2500000  -0.2500000   0.3750000), wk =   0.0039062
        k(  181) = (   0.2500000  -0.2500000  -0.5000000), wk =   0.0039062
        k(  182) = (   0.2500000  -0.2500000  -0.3750000), wk =   0.0039062
        k(  183) = (   0.2500000  -0.2500000  -0.2500000), wk =   0.0039062
        k(  184) = (   0.2500000  -0.2500000  -0.1250000), wk =   0.0039062
        k(  185) = (   0.2500000  -0.1250000   0.0000000), wk =   0.0039062
        k(  186) = (   0.2500000  -0.1250000   0.1250000), wk =   0.0039062
        k(  187) = (   0.2500000  -0.1250000   0.2500000), wk =   0.0039062
        k(  188) = (   0.2500000  -0.1250000   0.3750000), wk =   0.0039062
        k(  189) = (   0.2500000  -0.1250000  -0.5000000), wk =   0.0039062
        k(  190) = (   0.2500000  -0.1250000  -0.3750000), wk =   0.0039062
        k(  191) = (   0.2500000  -0.1250000  -0.2500000), wk =   0.0039062
        k(  192) = (   0.2500000  -0.1250000  -0.1250000), wk =   0.0039062
        k(  193) = (   0.3750000   0.0000000   0.0000000), wk =   0.0039062
        k(  194) = (   0.3750000   0.0000000   0.1250000), wk =   0.0039062
        k(  195) = (   0.3750000   0.0000000   0.2500000), wk =   0.0039062
        k(  196) = (   0.3750000   0.0000000   0.3750000), wk =   0.0039062
        k(  197) = (   0.3750000   0.0000000  -0.5000000), wk =   0.0039062
        k(  198) = (   0.3750000   0.0000000  -0.3750000), wk =   0.0039062
        k(  199) = (   0.3750000   0.0000000  -0.2500000), wk =   0.0039062
        k(  200) = (   0.3750000   0.0000000  -0.1250000), wk =   0.0039062
        k(  201) = (   0.3750000   0.1250000   0.0000000), wk =   0.0039062
        k(  202) = (   0.3750000   0.1250000   0.1250000), wk =   0.0039062
        k(  203) = (   0.3750000   0.1250000   0.2500000), wk =   0.0039062
        k(  204) = (   0.3750000   0.1250000   0.3750000), wk =   0.0039062
        k(  205) = (   0.3750000   0.1250000  -0.5000000), wk =   0.0039062
        k(  206) = (   0.3750000   0.1250000  -0.3750000), wk =   0.0039062
        k(  207) = (   0.3750000   0.1250000  -0.2500000), wk =   0.0039062
        k(  208) = (   0.3750000   0.1250000  -0.1250000), wk =   0.0039062
        k(  209) = (   0.3750000   0.2500000   0.0000000), wk =   0.0039062
        k(  210) = (   0.3750000   0.2500000   0.1250000), wk =   0.0039062
        k(  211) = (   0.3750000   0.2500000   0.2500000), wk =   0.0039062
        k(  212) = (   0.3750000   0.2500000   0.3750000), wk =   0.0039062
        k(  213) = (   0.3750000   0.2500000  -0.5000000), wk =   0.0039062
        k(  214) = (   0.3750000   0.2500000  -0.3750000), wk =   0.0039062
        k(  215) = (   0.3750000   0.2500000  -0.2500000), wk =   0.0039062
        k(  216) = (   0.3750000   0.2500000  -0.1250000), wk =   0.0039062
        k(  217) = (   0.3750000   0.3750000   0.0000000), wk =   0.0039062
        k(  218) = (   0.3750000   0.3750000   0.1250000), wk =   0.0039062
        k(  219) = (   0.3750000   0.3750000   0.2500000), wk =   0.0039062
        k(  220) = (   0.3750000   0.3750000   0.3750000), wk =   0.0039062
        k(  221) = (   0.3750000   0.3750000  -0.5000000), wk =   0.0039062
        k(  222) = (   0.3750000   0.3750000  -0.3750000), wk =   0.0039062
        k(  223) = (   0.3750000   0.3750000  -0.2500000), wk =   0.0039062
        k(  224) = (   0.3750000   0.3750000  -0.1250000), wk =   0.0039062
        k(  225) = (   0.3750000  -0.5000000   0.0000000), wk =   0.0039062
        k(  226) = (   0.3750000  -0.5000000   0.1250000), wk =   0.0039062
        k(  227) = (   0.3750000  -0.5000000   0.2500000), wk =   0.0039062
        k(  228) = (   0.3750000  -0.5000000   0.3750000), wk =   0.0039062
        k(  229) = (   0.3750000  -0.5000000  -0.5000000), wk =   0.0039062
        k(  230) = (   0.3750000  -0.5000000  -0.3750000), wk =   0.0039062
        k(  231) = (   0.3750000  -0.5000000  -0.2500000), wk =   0.0039062
        k(  232) = (   0.3750000  -0.5000000  -0.1250000), wk =   0.0039062
        k(  233) = (   0.3750000  -0.3750000   0.0000000), wk =   0.0039062
        k(  234) = (   0.3750000  -0.3750000   0.1250000), wk =   0.0039062
        k(  235) = (   0.3750000  -0.3750000   0.2500000), wk =   0.0039062
        k(  236) = (   0.3750000  -0.3750000   0.3750000), wk =   0.0039062
        k(  237) = (   0.3750000  -0.3750000  -0.5000000), wk =   0.0039062
        k(  238) = (   0.3750000  -0.3750000  -0.3750000), wk =   0.0039062
        k(  239) = (   0.3750000  -0.3750000  -0.2500000), wk =   0.0039062
        k(  240) = (   0.3750000  -0.3750000  -0.1250000), wk =   0.0039062
        k(  241) = (   0.3750000  -0.2500000   0.0000000), wk =   0.0039062
        k(  242) = (   0.3750000  -0.2500000   0.1250000), wk =   0.0039062
        k(  243) = (   0.3750000  -0.2500000   0.2500000), wk =   0.0039062
        k(  244) = (   0.3750000  -0.2500000   0.3750000), wk =   0.0039062
        k(  245) = (   0.3750000  -0.2500000  -0.5000000), wk =   0.0039062
        k(  246) = (   0.3750000  -0.2500000  -0.3750000), wk =   0.0039062
        k(  247) = (   0.3750000  -0.2500000  -0.2500000), wk =   0.0039062
        k(  248) = (   0.3750000  -0.2500000  -0.1250000), wk =   0.0039062
        k(  249) = (   0.3750000  -0.1250000   0.0000000), wk =   0.0039062
        k(  250) = (   0.3750000  -0.1250000   0.1250000), wk =   0.0039062
        k(  251) = (   0.3750000  -0.1250000   0.2500000), wk =   0.0039062
        k(  252) = (   0.3750000  -0.1250000   0.3750000), wk =   0.0039062
        k(  253) = (   0.3750000  -0.1250000  -0.5000000), wk =   0.0039062
        k(  254) = (   0.3750000  -0.1250000  -0.3750000), wk =   0.0039062
        k(  255) = (   0.3750000  -0.1250000  -0.2500000), wk =   0.0039062
        k(  256) = (   0.3750000  -0.1250000  -0.1250000), wk =   0.0039062
        k(  257) = (  -0.5000000   0.0000000   0.0000000), wk =   0.0039062
        k(  258) = (  -0.5000000   0.0000000   0.1250000), wk =   0.0039062
        k(  259) = (  -0.5000000   0.0000000   0.2500000), wk =   0.0039062
        k(  260) = (  -0.5000000   0.0000000   0.3750000), wk =   0.0039062
        k(  261) = (  -0.5000000   0.0000000  -0.5000000), wk =   0.0039062
        k(  262) = (  -0.5000000   0.0000000  -0.3750000), wk =   0.0039062
        k(  263) = (  -0.5000000   0.0000000  -0.2500000), wk =   0.0039062
        k(  264) = (  -0.5000000   0.0000000  -0.1250000), wk =   0.0039062
        k(  265) = (  -0.5000000   0.1250000   0.0000000), wk =   0.0039062
        k(  266) = (  -0.5000000   0.1250000   0.1250000), wk =   0.0039062
        k(  267) = (  -0.5000000   0.1250000   0.2500000), wk =   0.0039062
        k(  268) = (  -0.5000000   0.1250000   0.3750000), wk =   0.0039062
        k(  269) = (  -0.5000000   0.1250000  -0.5000000), wk =   0.0039062
        k(  270) = (  -0.5000000   0.1250000  -0.3750000), wk =   0.0039062
        k(  271) = (  -0.5000000   0.1250000  -0.2500000), wk =   0.0039062
        k(  272) = (  -0.5000000   0.1250000  -0.1250000), wk =   0.0039062
        k(  273) = (  -0.5000000   0.2500000   0.0000000), wk =   0.0039062
        k(  274) = (  -0.5000000   0.2500000   0.1250000), wk =   0.0039062
        k(  275) = (  -0.5000000   0.2500000   0.2500000), wk =   0.0039062
        k(  276) = (  -0.5000000   0.2500000   0.3750000), wk =   0.0039062
        k(  277) = (  -0.5000000   0.2500000  -0.5000000), wk =   0.0039062
        k(  278) = (  -0.5000000   0.2500000  -0.3750000), wk =   0.0039062
        k(  279) = (  -0.5000000   0.2500000  -0.2500000), wk =   0.0039062
        k(  280) = (  -0.5000000   0.2500000  -0.1250000), wk =   0.0039062
        k(  281) = (  -0.5000000   0.3750000   0.0000000), wk =   0.0039062
        k(  282) = (  -0.5000000   0.3750000   0.1250000), wk =   0.0039062
        k(  283) = (  -0.5000000   0.3750000   0.2500000), wk =   0.0039062
        k(  284) = (  -0.5000000   0.3750000   0.3750000), wk =   0.0039062
        k(  285) = (  -0.5000000   0.3750000  -0.5000000), wk =   0.0039062
        k(  286) = (  -0.5000000   0.3750000  -0.3750000), wk =   0.0039062
        k(  287) = (  -0.5000000   0.3750000  -0.2500000), wk =   0.0039062
        k(  288) = (  -0.5000000   0.3750000  -0.1250000), wk =   0.0039062
        k(  289) = (  -0.5000000  -0.5000000   0.0000000), wk =   0.0039062
        k(  290) = (  -0.5000000  -0.5000000   0.1250000), wk =   0.0039062
        k(  291) = (  -0.5000000  -0.5000000   0.2500000), wk =   0.0039062
        k(  292) = (  -0.5000000  -0.5000000   0.3750000), wk =   0.0039062
        k(  293) = (  -0.5000000  -0.5000000  -0.5000000), wk =   0.0039062
        k(  294) = (  -0.5000000  -0.5000000  -0.3750000), wk =   0.0039062
        k(  295) = (  -0.5000000  -0.5000000  -0.2500000), wk =   0.0039062
        k(  296) = (  -0.5000000  -0.5000000  -0.1250000), wk =   0.0039062
        k(  297) = (  -0.5000000  -0.3750000   0.0000000), wk =   0.0039062
        k(  298) = (  -0.5000000  -0.3750000   0.1250000), wk =   0.0039062
        k(  299) = (  -0.5000000  -0.3750000   0.2500000), wk =   0.0039062
        k(  300) = (  -0.5000000  -0.3750000   0.3750000), wk =   0.0039062
        k(  301) = (  -0.5000000  -0.3750000  -0.5000000), wk =   0.0039062
        k(  302) = (  -0.5000000  -0.3750000  -0.3750000), wk =   0.0039062
        k(  303) = (  -0.5000000  -0.3750000  -0.2500000), wk =   0.0039062
        k(  304) = (  -0.5000000  -0.3750000  -0.1250000), wk =   0.0039062
        k(  305) = (  -0.5000000  -0.2500000   0.0000000), wk =   0.0039062
        k(  306) = (  -0.5000000  -0.2500000   0.1250000), wk =   0.0039062
        k(  307) = (  -0.5000000  -0.2500000   0.2500000), wk =   0.0039062
        k(  308) = (  -0.5000000  -0.2500000   0.3750000), wk =   0.0039062
        k(  309) = (  -0.5000000  -0.2500000  -0.5000000), wk =   0.0039062
        k(  310) = (  -0.5000000  -0.2500000  -0.3750000), wk =   0.0039062
        k(  311) = (  -0.5000000  -0.2500000  -0.2500000), wk =   0.0039062
        k(  312) = (  -0.5000000  -0.2500000  -0.1250000), wk =   0.0039062
        k(  313) = (  -0.5000000  -0.1250000   0.0000000), wk =   0.0039062
        k(  314) = (  -0.5000000  -0.1250000   0.1250000), wk =   0.0039062
        k(  315) = (  -0.5000000  -0.1250000   0.2500000), wk =   0.0039062
        k(  316) = (  -0.5000000  -0.1250000   0.3750000), wk =   0.0039062
        k(  317) = (  -0.5000000  -0.1250000  -0.5000000), wk =   0.0039062
        k(  318) = (  -0.5000000  -0.1250000  -0.3750000), wk =   0.0039062
        k(  319) = (  -0.5000000  -0.1250000  -0.2500000), wk =   0.0039062
        k(  320) = (  -0.5000000  -0.1250000  -0.1250000), wk =   0.0039062
        k(  321) = (  -0.3750000   0.0000000   0.0000000), wk =   0.0039062
        k(  322) = (  -0.3750000   0.0000000   0.1250000), wk =   0.0039062
        k(  323) = (  -0.3750000   0.0000000   0.2500000), wk =   0.0039062
        k(  324) = (  -0.3750000   0.0000000   0.3750000), wk =   0.0039062
        k(  325) = (  -0.3750000   0.0000000  -0.5000000), wk =   0.0039062
        k(  326) = (  -0.3750000   0.0000000  -0.3750000), wk =   0.0039062
        k(  327) = (  -0.3750000   0.0000000  -0.2500000), wk =   0.0039062
        k(  328) = (  -0.3750000   0.0000000  -0.1250000), wk =   0.0039062
        k(  329) = (  -0.3750000   0.1250000   0.0000000), wk =   0.0039062
        k(  330) = (  -0.3750000   0.1250000   0.1250000), wk =   0.0039062
        k(  331) = (  -0.3750000   0.1250000   0.2500000), wk =   0.0039062
        k(  332) = (  -0.3750000   0.1250000   0.3750000), wk =   0.0039062
        k(  333) = (  -0.3750000   0.1250000  -0.5000000), wk =   0.0039062
        k(  334) = (  -0.3750000   0.1250000  -0.3750000), wk =   0.0039062
        k(  335) = (  -0.3750000   0.1250000  -0.2500000), wk =   0.0039062
        k(  336) = (  -0.3750000   0.1250000  -0.1250000), wk =   0.0039062
        k(  337) = (  -0.3750000   0.2500000   0.0000000), wk =   0.0039062
        k(  338) = (  -0.3750000   0.2500000   0.1250000), wk =   0.0039062
        k(  339) = (  -0.3750000   0.2500000   0.2500000), wk =   0.0039062
        k(  340) = (  -0.3750000   0.2500000   0.3750000), wk =   0.0039062
        k(  341) = (  -0.3750000   0.2500000  -0.5000000), wk =   0.0039062
        k(  342) = (  -0.3750000   0.2500000  -0.3750000), wk =   0.0039062
        k(  343) = (  -0.3750000   0.2500000  -0.2500000), wk =   0.0039062
        k(  344) = (  -0.3750000   0.2500000  -0.1250000), wk =   0.0039062
        k(  345) = (  -0.3750000   0.3750000   0.0000000), wk =   0.0039062
        k(  346) = (  -0.3750000   0.3750000   0.1250000), wk =   0.0039062
        k(  347) = (  -0.3750000   0.3750000   0.2500000), wk =   0.0039062
        k(  348) = (  -0.3750000   0.3750000   0.3750000), wk =   0.0039062
        k(  349) = (  -0.3750000   0.3750000  -0.5000000), wk =   0.0039062
        k(  350) = (  -0.3750000   0.3750000  -0.3750000), wk =   0.0039062
        k(  351) = (  -0.3750000   0.3750000  -0.2500000), wk =   0.0039062
        k(  352) = (  -0.3750000   0.3750000  -0.1250000), wk =   0.0039062
        k(  353) = (  -0.3750000  -0.5000000   0.0000000), wk =   0.0039062
        k(  354) = (  -0.3750000  -0.5000000   0.1250000), wk =   0.0039062
        k(  355) = (  -0.3750000  -0.5000000   0.2500000), wk =   0.0039062
        k(  356) = (  -0.3750000  -0.5000000   0.3750000), wk =   0.0039062
        k(  357) = (  -0.3750000  -0.5000000  -0.5000000), wk =   0.0039062
        k(  358) = (  -0.3750000  -0.5000000  -0.3750000), wk =   0.0039062
        k(  359) = (  -0.3750000  -0.5000000  -0.2500000), wk =   0.0039062
        k(  360) = (  -0.3750000  -0.5000000  -0.1250000), wk =   0.0039062
        k(  361) = (  -0.3750000  -0.3750000   0.0000000), wk =   0.0039062
        k(  362) = (  -0.3750000  -0.3750000   0.1250000), wk =   0.0039062
        k(  363) = (  -0.3750000  -0.3750000   0.2500000), wk =   0.0039062
        k(  364) = (  -0.3750000  -0.3750000   0.3750000), wk =   0.0039062
        k(  365) = (  -0.3750000  -0.3750000  -0.5000000), wk =   0.0039062
        k(  366) = (  -0.3750000  -0.3750000  -0.3750000), wk =   0.0039062
        k(  367) = (  -0.3750000  -0.3750000  -0.2500000), wk =   0.0039062
        k(  368) = (  -0.3750000  -0.3750000  -0.1250000), wk =   0.0039062
        k(  369) = (  -0.3750000  -0.2500000   0.0000000), wk =   0.0039062
        k(  370) = (  -0.3750000  -0.2500000   0.1250000), wk =   0.0039062
        k(  371) = (  -0.3750000  -0.2500000   0.2500000), wk =   0.0039062
        k(  372) = (  -0.3750000  -0.2500000   0.3750000), wk =   0.0039062
        k(  373) = (  -0.3750000  -0.2500000  -0.5000000), wk =   0.0039062
        k(  374) = (  -0.3750000  -0.2500000  -0.3750000), wk =   0.0039062
        k(  375) = (  -0.3750000  -0.2500000  -0.2500000), wk =   0.0039062
        k(  376) = (  -0.3750000  -0.2500000  -0.1250000), wk =   0.0039062
        k(  377) = (  -0.3750000  -0.1250000   0.0000000), wk =   0.0039062
        k(  378) = (  -0.3750000  -0.1250000   0.1250000), wk =   0.0039062
        k(  379) = (  -0.3750000  -0.1250000   0.2500000), wk =   0.0039062
        k(  380) = (  -0.3750000  -0.1250000   0.3750000), wk =   0.0039062
        k(  381) = (  -0.3750000  -0.1250000  -0.5000000), wk =   0.0039062
        k(  382) = (  -0.3750000  -0.1250000  -0.3750000), wk =   0.0039062
        k(  383) = (  -0.3750000  -0.1250000  -0.2500000), wk =   0.0039062
        k(  384) = (  -0.3750000  -0.1250000  -0.1250000), wk =   0.0039062
        k(  385) = (  -0.2500000   0.0000000   0.0000000), wk =   0.0039062
        k(  386) = (  -0.2500000   0.0000000   0.1250000), wk =   0.0039062
        k(  387) = (  -0.2500000   0.0000000   0.2500000), wk =   0.0039062
        k(  388) = (  -0.2500000   0.0000000   0.3750000), wk =   0.0039062
        k(  389) = (  -0.2500000   0.0000000  -0.5000000), wk =   0.0039062
        k(  390) = (  -0.2500000   0.0000000  -0.3750000), wk =   0.0039062
        k(  391) = (  -0.2500000   0.0000000  -0.2500000), wk =   0.0039062
        k(  392) = (  -0.2500000   0.0000000  -0.1250000), wk =   0.0039062
        k(  393) = (  -0.2500000   0.1250000   0.0000000), wk =   0.0039062
        k(  394) = (  -0.2500000   0.1250000   0.1250000), wk =   0.0039062
        k(  395) = (  -0.2500000   0.1250000   0.2500000), wk =   0.0039062
        k(  396) = (  -0.2500000   0.1250000   0.3750000), wk =   0.0039062
        k(  397) = (  -0.2500000   0.1250000  -0.5000000), wk =   0.0039062
        k(  398) = (  -0.2500000   0.1250000  -0.3750000), wk =   0.0039062
        k(  399) = (  -0.2500000   0.1250000  -0.2500000), wk =   0.0039062
        k(  400) = (  -0.2500000   0.1250000  -0.1250000), wk =   0.0039062
        k(  401) = (  -0.2500000   0.2500000   0.0000000), wk =   0.0039062
        k(  402) = (  -0.2500000   0.2500000   0.1250000), wk =   0.0039062
        k(  403) = (  -0.2500000   0.2500000   0.2500000), wk =   0.0039062
        k(  404) = (  -0.2500000   0.2500000   0.3750000), wk =   0.0039062
        k(  405) = (  -0.2500000   0.2500000  -0.5000000), wk =   0.0039062
        k(  406) = (  -0.2500000   0.2500000  -0.3750000), wk =   0.0039062
        k(  407) = (  -0.2500000   0.2500000  -0.2500000), wk =   0.0039062
        k(  408) = (  -0.2500000   0.2500000  -0.1250000), wk =   0.0039062
        k(  409) = (  -0.2500000   0.3750000   0.0000000), wk =   0.0039062
        k(  410) = (  -0.2500000   0.3750000   0.1250000), wk =   0.0039062
        k(  411) = (  -0.2500000   0.3750000   0.2500000), wk =   0.0039062
        k(  412) = (  -0.2500000   0.3750000   0.3750000), wk =   0.0039062
        k(  413) = (  -0.2500000   0.3750000  -0.5000000), wk =   0.0039062
        k(  414) = (  -0.2500000   0.3750000  -0.3750000), wk =   0.0039062
        k(  415) = (  -0.2500000   0.3750000  -0.2500000), wk =   0.0039062
        k(  416) = (  -0.2500000   0.3750000  -0.1250000), wk =   0.0039062
        k(  417) = (  -0.2500000  -0.5000000   0.0000000), wk =   0.0039062
        k(  418) = (  -0.2500000  -0.5000000   0.1250000), wk =   0.0039062
        k(  419) = (  -0.2500000  -0.5000000   0.2500000), wk =   0.0039062
        k(  420) = (  -0.2500000  -0.5000000   0.3750000), wk =   0.0039062
        k(  421) = (  -0.2500000  -0.5000000  -0.5000000), wk =   0.0039062
        k(  422) = (  -0.2500000  -0.5000000  -0.3750000), wk =   0.0039062
        k(  423) = (  -0.2500000  -0.5000000  -0.2500000), wk =   0.0039062
        k(  424) = (  -0.2500000  -0.5000000  -0.1250000), wk =   0.0039062
        k(  425) = (  -0.2500000  -0.3750000   0.0000000), wk =   0.0039062
        k(  426) = (  -0.2500000  -0.3750000   0.1250000), wk =   0.0039062
        k(  427) = (  -0.2500000  -0.3750000   0.2500000), wk =   0.0039062
        k(  428) = (  -0.2500000  -0.3750000   0.3750000), wk =   0.0039062
        k(  429) = (  -0.2500000  -0.3750000  -0.5000000), wk =   0.0039062
        k(  430) = (  -0.2500000  -0.3750000  -0.3750000), wk =   0.0039062
        k(  431) = (  -0.2500000  -0.3750000  -0.2500000), wk =   0.0039062
        k(  432) = (  -0.2500000  -0.3750000  -0.1250000), wk =   0.0039062
        k(  433) = (  -0.2500000  -0.2500000   0.0000000), wk =   0.0039062
        k(  434) = (  -0.2500000  -0.2500000   0.1250000), wk =   0.0039062
        k(  435) = (  -0.2500000  -0.2500000   0.2500000), wk =   0.0039062
        k(  436) = (  -0.2500000  -0.2500000   0.3750000), wk =   0.0039062
        k(  437) = (  -0.2500000  -0.2500000  -0.5000000), wk =   0.0039062
        k(  438) = (  -0.2500000  -0.2500000  -0.3750000), wk =   0.0039062
        k(  439) = (  -0.2500000  -0.2500000  -0.2500000), wk =   0.0039062
        k(  440) = (  -0.2500000  -0.2500000  -0.1250000), wk =   0.0039062
        k(  441) = (  -0.2500000  -0.1250000   0.0000000), wk =   0.0039062
        k(  442) = (  -0.2500000  -0.1250000   0.1250000), wk =   0.0039062
        k(  443) = (  -0.2500000  -0.1250000   0.2500000), wk =   0.0039062
        k(  444) = (  -0.2500000  -0.1250000   0.3750000), wk =   0.0039062
        k(  445) = (  -0.2500000  -0.1250000  -0.5000000), wk =   0.0039062
        k(  446) = (  -0.2500000  -0.1250000  -0.3750000), wk =   0.0039062
        k(  447) = (  -0.2500000  -0.1250000  -0.2500000), wk =   0.0039062
        k(  448) = (  -0.2500000  -0.1250000  -0.1250000), wk =   0.0039062
        k(  449) = (  -0.1250000   0.0000000   0.0000000), wk =   0.0039062
        k(  450) = (  -0.1250000   0.0000000   0.1250000), wk =   0.0039062
        k(  451) = (  -0.1250000   0.0000000   0.2500000), wk =   0.0039062
        k(  452) = (  -0.1250000   0.0000000   0.3750000), wk =   0.0039062
        k(  453) = (  -0.1250000   0.0000000  -0.5000000), wk =   0.0039062
        k(  454) = (  -0.1250000   0.0000000  -0.3750000), wk =   0.0039062
        k(  455) = (  -0.1250000   0.0000000  -0.2500000), wk =   0.0039062
        k(  456) = (  -0.1250000   0.0000000  -0.1250000), wk =   0.0039062
        k(  457) = (  -0.1250000   0.1250000   0.0000000), wk =   0.0039062
        k(  458) = (  -0.1250000   0.1250000   0.1250000), wk =   0.0039062
        k(  459) = (  -0.1250000   0.1250000   0.2500000), wk =   0.0039062
        k(  460) = (  -0.1250000   0.1250000   0.3750000), wk =   0.0039062
        k(  461) = (  -0.1250000   0.1250000  -0.5000000), wk =   0.0039062
        k(  462) = (  -0.1250000   0.1250000  -0.3750000), wk =   0.0039062
        k(  463) = (  -0.1250000   0.1250000  -0.2500000), wk =   0.0039062
        k(  464) = (  -0.1250000   0.1250000  -0.1250000), wk =   0.0039062
        k(  465) = (  -0.1250000   0.2500000   0.0000000), wk =   0.0039062
        k(  466) = (  -0.1250000   0.2500000   0.1250000), wk =   0.0039062
        k(  467) = (  -0.1250000   0.2500000   0.2500000), wk =   0.0039062
        k(  468) = (  -0.1250000   0.2500000   0.3750000), wk =   0.0039062
        k(  469) = (  -0.1250000   0.2500000  -0.5000000), wk =   0.0039062
        k(  470) = (  -0.1250000   0.2500000  -0.3750000), wk =   0.0039062
        k(  471) = (  -0.1250000   0.2500000  -0.2500000), wk =   0.0039062
        k(  472) = (  -0.1250000   0.2500000  -0.1250000), wk =   0.0039062
        k(  473) = (  -0.1250000   0.3750000   0.0000000), wk =   0.0039062
        k(  474) = (  -0.1250000   0.3750000   0.1250000), wk =   0.0039062
        k(  475) = (  -0.1250000   0.3750000   0.2500000), wk =   0.0039062
        k(  476) = (  -0.1250000   0.3750000   0.3750000), wk =   0.0039062
        k(  477) = (  -0.1250000   0.3750000  -0.5000000), wk =   0.0039062
        k(  478) = (  -0.1250000   0.3750000  -0.3750000), wk =   0.0039062
        k(  479) = (  -0.1250000   0.3750000  -0.2500000), wk =   0.0039062
        k(  480) = (  -0.1250000   0.3750000  -0.1250000), wk =   0.0039062
        k(  481) = (  -0.1250000  -0.5000000   0.0000000), wk =   0.0039062
        k(  482) = (  -0.1250000  -0.5000000   0.1250000), wk =   0.0039062
        k(  483) = (  -0.1250000  -0.5000000   0.2500000), wk =   0.0039062
        k(  484) = (  -0.1250000  -0.5000000   0.3750000), wk =   0.0039062
        k(  485) = (  -0.1250000  -0.5000000  -0.5000000), wk =   0.0039062
        k(  486) = (  -0.1250000  -0.5000000  -0.3750000), wk =   0.0039062
        k(  487) = (  -0.1250000  -0.5000000  -0.2500000), wk =   0.0039062
        k(  488) = (  -0.1250000  -0.5000000  -0.1250000), wk =   0.0039062
        k(  489) = (  -0.1250000  -0.3750000   0.0000000), wk =   0.0039062
        k(  490) = (  -0.1250000  -0.3750000   0.1250000), wk =   0.0039062
        k(  491) = (  -0.1250000  -0.3750000   0.2500000), wk =   0.0039062
        k(  492) = (  -0.1250000  -0.3750000   0.3750000), wk =   0.0039062
        k(  493) = (  -0.1250000  -0.3750000  -0.5000000), wk =   0.0039062
        k(  494) = (  -0.1250000  -0.3750000  -0.3750000), wk =   0.0039062
        k(  495) = (  -0.1250000  -0.3750000  -0.2500000), wk =   0.0039062
        k(  496) = (  -0.1250000  -0.3750000  -0.1250000), wk =   0.0039062
        k(  497) = (  -0.1250000  -0.2500000   0.0000000), wk =   0.0039062
        k(  498) = (  -0.1250000  -0.2500000   0.1250000), wk =   0.0039062
        k(  499) = (  -0.1250000  -0.2500000   0.2500000), wk =   0.0039062
        k(  500) = (  -0.1250000  -0.2500000   0.3750000), wk =   0.0039062
        k(  501) = (  -0.1250000  -0.2500000  -0.5000000), wk =   0.0039062
        k(  502) = (  -0.1250000  -0.2500000  -0.3750000), wk =   0.0039062
        k(  503) = (  -0.1250000  -0.2500000  -0.2500000), wk =   0.0039062
        k(  504) = (  -0.1250000  -0.2500000  -0.1250000), wk =   0.0039062
        k(  505) = (  -0.1250000  -0.1250000   0.0000000), wk =   0.0039062
        k(  506) = (  -0.1250000  -0.1250000   0.1250000), wk =   0.0039062
        k(  507) = (  -0.1250000  -0.1250000   0.2500000), wk =   0.0039062
        k(  508) = (  -0.1250000  -0.1250000   0.3750000), wk =   0.0039062
        k(  509) = (  -0.1250000  -0.1250000  -0.5000000), wk =   0.0039062
        k(  510) = (  -0.1250000  -0.1250000  -0.3750000), wk =   0.0039062
        k(  511) = (  -0.1250000  -0.1250000  -0.2500000), wk =   0.0039062
        k(  512) = (  -0.1250000  -0.1250000  -0.1250000), wk =   0.0039062

     Dense  grid:     7119 G-vectors     FFT dimensions: (  27,  27,  27)

     Smooth grid:     2445 G-vectors     FFT dimensions: (  20,  20,  20)

     Dynamical RAM for                 wfc:       0.02 MB

     Dynamical RAM for     wfc (w. buffer):       0.02 MB

     Dynamical RAM for           str. fact:       0.11 MB

     Dynamical RAM for           local pot:       0.00 MB

     Dynamical RAM for          nlocal pot:       0.09 MB

     Dynamical RAM for                qrad:       1.24 MB

     Dynamical RAM for          rho,v,vnew:       0.78 MB

     Dynamical RAM for           G-vectors:       0.43 MB

     Dynamical RAM for          h,s,v(r/c):       0.00 MB

     Dynamical RAM for          <psi|beta>:       0.00 MB

     Dynamical RAM for                 psi:       0.04 MB

     Dynamical RAM for                hpsi:       0.04 MB

     Dynamical RAM for                spsi:       0.04 MB

     Dynamical RAM for      wfcinit/wfcrot:       0.04 MB

     Dynamical RAM for           addusdens:      20.31 MB

     Estimated static dynamical RAM per process >       3.63 MB

     Estimated max dynamical RAM per process >      23.94 MB

     The potential is recalculated from file :
     ./tmp/al.save/charge-density

     Starting wfcs are    4 randomized atomic wfcs

     Band Structure Calculation
     Davidson diagonalization with overlap

     Computing kpt #:     1  of   512
     c_bands:  1 eigenvalues not converged
     total cpu time spent up to now is        0.4 secs

     Computing kpt #:     2  of   512
     total cpu time spent up to now is        0.4 secs

     Computing kpt #:     3  of   512
     total cpu time spent up to now is        0.5 secs

     Computing kpt #:     4  of   512
     total cpu time spent up to now is        0.5 secs

     Computing kpt #:     5  of   512
     total cpu time spent up to now is        0.5 secs

     Computing kpt #:     6  of   512
     total cpu time spent up to now is        0.5 secs

     Computing kpt #:     7  of   512
     total cpu time spent up to now is        0.5 secs

     Computing kpt #:     8  of   512
     total cpu time spent up to now is        0.5 secs

     Computing kpt #:     9  of   512
     total cpu time spent up to now is        0.5 secs

     Computing kpt #:    10  of   512
     total cpu time spent up to now is        0.5 secs

     Computing kpt #:    11  of   512
     total cpu time spent up to now is        0.5 secs

     Computing kpt #:    12  of   512
     total cpu time spent up to now is        0.5 secs

     Computing kpt #:    13  of   512
     total cpu time spent up to now is        0.5 secs

     Computing kpt #:    14  of   512
     total cpu time spent up to now is        0.6 secs

     Computing kpt #:    15  of   512
     total cpu time spent up to now is        0.6 secs

     Computing kpt #:    16  of   512
     total cpu time spent up to now is        0.6 secs

     Computing kpt #:    17  of   512
     total cpu time spent up to now is        0.6 secs

     Computing kpt #:    18  of   512
     total cpu time spent up to now is        0.6 secs

     Computing kpt #:    19  of   512
     total cpu time spent up to now is        0.6 secs

     Computing kpt #:    20  of   512
     total cpu time spent up to now is        0.6 secs

     Computing kpt #:    21  of   512
     total cpu time spent up to now is        0.6 secs

     Computing kpt #:    22  of   512
     total cpu time spent up to now is        0.6 secs

     Computing kpt #:    23  of   512
     total cpu time spent up to now is        0.6 secs

     Computing kpt #:    24  of   512
     total cpu time spent up to now is        0.6 secs

     Computing kpt #:    25  of   512
     total cpu time spent up to now is        0.7 secs

     Computing kpt #:    26  of   512
     total cpu time spent up to now is        0.7 secs

     Computing kpt #:    27  of   512
     total cpu time spent up to now is        0.7 secs

     Computing kpt #:    28  of   512
     total cpu time spent up to now is        0.7 secs

     Computing kpt #:    29  of   512
     total cpu time spent up to now is        0.7 secs

     Computing kpt #:    30  of   512
     total cpu time spent up to now is        0.7 secs

     Computing kpt #:    31  of   512
     total cpu time spent up to now is        0.7 secs

     Computing kpt #:    32  of   512
     total cpu time spent up to now is        0.7 secs

     Computing kpt #:    33  of   512
     c_bands:  1 eigenvalues not converged
     total cpu time spent up to now is        0.7 secs

     Computing kpt #:    34  of   512
     total cpu time spent up to now is        0.7 secs

     Computing kpt #:    35  of   512
     total cpu time spent up to now is        0.8 secs

     Computing kpt #:    36  of   512
     total cpu time spent up to now is        0.8 secs

     Computing kpt #:    37  of   512
     total cpu time spent up to now is        0.8 secs

     Computing kpt #:    38  of   512
     total cpu time spent up to now is        0.8 secs

     Computing kpt #:    39  of   512
     total cpu time spent up to now is        0.8 secs

     Computing kpt #:    40  of   512
     total cpu time spent up to now is        0.8 secs

     Computing kpt #:    41  of   512
     total cpu time spent up to now is        0.8 secs

     Computing kpt #:    42  of   512
     total cpu time spent up to now is        0.8 secs

     Computing kpt #:    43  of   512
     total cpu time spent up to now is        0.8 secs

     Computing kpt #:    44  of   512
     total cpu time spent up to now is        0.8 secs

     Computing kpt #:    45  of   512
     total cpu time spent up to now is        0.8 secs

     Computing kpt #:    46  of   512
     c_bands:  1 eigenvalues not converged
     total cpu time spent up to now is        0.9 secs

     Computing kpt #:    47  of   512
     total cpu time spent up to now is        0.9 secs

     Computing kpt #:    48  of   512
     total cpu time spent up to now is        0.9 secs

     Computing kpt #:    49  of   512
     total cpu time spent up to now is        0.9 secs

     Computing kpt #:    50  of   512
     total cpu time spent up to now is        0.9 secs

     Computing kpt #:    51  of   512
     total cpu time spent up to now is        0.9 secs

     Computing kpt #:    52  of   512
     total cpu time spent up to now is        0.9 secs

     Computing kpt #:    53  of   512
     total cpu time spent up to now is        0.9 secs

     Computing kpt #:    54  of   512
     total cpu time spent up to now is        0.9 secs

     Computing kpt #:    55  of   512
     total cpu time spent up to now is        0.9 secs

     Computing kpt #:    56  of   512
     total cpu time spent up to now is        1.0 secs

     Computing kpt #:    57  of   512
     total cpu time spent up to now is        1.0 secs

     Computing kpt #:    58  of   512
     c_bands:  1 eigenvalues not converged
     total cpu time spent up to now is        1.0 secs

     Computing kpt #:    59  of   512
     total cpu time spent up to now is        1.0 secs

     Computing kpt #:    60  of   512
     total cpu time spent up to now is        1.0 secs

     Computing kpt #:    61  of   512
     total cpu time spent up to now is        1.0 secs

     Computing kpt #:    62  of   512
     total cpu time spent up to now is        1.0 secs

     Computing kpt #:    63  of   512
     total cpu time spent up to now is        1.0 secs

     Computing kpt #:    64  of   512
     total cpu time spent up to now is        1.0 secs

     Computing kpt #:    65  of   512
     total cpu time spent up to now is        1.0 secs

     Computing kpt #:    66  of   512
     total cpu time spent up to now is        1.1 secs

     Computing kpt #:    67  of   512
     total cpu time spent up to now is        1.1 secs

     Computing kpt #:    68  of   512
     total cpu time spent up to now is        1.1 secs

     Computing kpt #:    69  of   512
     total cpu time spent up to now is        1.1 secs

     Computing kpt #:    70  of   512
     total cpu time spent up to now is        1.1 secs

     Computing kpt #:    71  of   512
     total cpu time spent up to now is        1.1 secs

     Computing kpt #:    72  of   512
     total cpu time spent up to now is        1.1 secs

     Computing kpt #:    73  of   512
     total cpu time spent up to now is        1.1 secs

     Computing kpt #:    74  of   512
     total cpu time spent up to now is        1.1 secs

     Computing kpt #:    75  of   512
     total cpu time spent up to now is        1.1 secs

     Computing kpt #:    76  of   512
     total cpu time spent up to now is        1.2 secs

     Computing kpt #:    77  of   512
     total cpu time spent up to now is        1.2 secs

     Computing kpt #:    78  of   512
     total cpu time spent up to now is        1.2 secs

     Computing kpt #:    79  of   512
     total cpu time spent up to now is        1.2 secs

     Computing kpt #:    80  of   512
     total cpu time spent up to now is        1.2 secs

     Computing kpt #:    81  of   512
     total cpu time spent up to now is        1.2 secs

     Computing kpt #:    82  of   512
     c_bands:  1 eigenvalues not converged
     total cpu time spent up to now is        1.2 secs

     Computing kpt #:    83  of   512
     total cpu time spent up to now is        1.2 secs

     Computing kpt #:    84  of   512
     total cpu time spent up to now is        1.2 secs

     Computing kpt #:    85  of   512
     total cpu time spent up to now is        1.2 secs

     Computing kpt #:    86  of   512
     total cpu time spent up to now is        1.2 secs

     Computing kpt #:    87  of   512
     total cpu time spent up to now is        1.3 secs

     Computing kpt #:    88  of   512
     total cpu time spent up to now is        1.3 secs

     Computing kpt #:    89  of   512
     total cpu time spent up to now is        1.3 secs

     Computing kpt #:    90  of   512
     total cpu time spent up to now is        1.3 secs

     Computing kpt #:    91  of   512
     total cpu time spent up to now is        1.3 secs

     Computing kpt #:    92  of   512
     total cpu time spent up to now is        1.3 secs

     Computing kpt #:    93  of   512
     total cpu time spent up to now is        1.3 secs

     Computing kpt #:    94  of   512
     total cpu time spent up to now is        1.3 secs

     Computing kpt #:    95  of   512
     total cpu time spent up to now is        1.3 secs

     Computing kpt #:    96  of   512
     total cpu time spent up to now is        1.3 secs

     Computing kpt #:    97  of   512
     total cpu time spent up to now is        1.3 secs

     Computing kpt #:    98  of   512
     total cpu time spent up to now is        1.3 secs

     Computing kpt #:    99  of   512
     total cpu time spent up to now is        1.3 secs

     Computing kpt #:   100  of   512
     total cpu time spent up to now is        1.4 secs

     Computing kpt #:   101  of   512
     total cpu time spent up to now is        1.4 secs

     Computing kpt #:   102  of   512
     total cpu time spent up to now is        1.4 secs

     Computing kpt #:   103  of   512
     total cpu time spent up to now is        1.4 secs

     Computing kpt #:   104  of   512
     total cpu time spent up to now is        1.4 secs

     Computing kpt #:   105  of   512
     total cpu time spent up to now is        1.4 secs

     Computing kpt #:   106  of   512
     total cpu time spent up to now is        1.4 secs

     Computing kpt #:   107  of   512
     total cpu time spent up to now is        1.4 secs

     Computing kpt #:   108  of   512
     total cpu time spent up to now is        1.4 secs

     Computing kpt #:   109  of   512
     total cpu time spent up to now is        1.4 secs

     Computing kpt #:   110  of   512
     total cpu time spent up to now is        1.4 secs

     Computing kpt #:   111  of   512
     total cpu time spent up to now is        1.4 secs

     Computing kpt #:   112  of   512
     total cpu time spent up to now is        1.4 secs

     Computing kpt #:   113  of   512
     total cpu time spent up to now is        1.5 secs

     Computing kpt #:   114  of   512
     total cpu time spent up to now is        1.5 secs

     Computing kpt #:   115  of   512
     total cpu time spent up to now is        1.5 secs

     Computing kpt #:   116  of   512
     total cpu time spent up to now is        1.5 secs

     Computing kpt #:   117  of   512
     total cpu time spent up to now is        1.5 secs

     Computing kpt #:   118  of   512
     total cpu time spent up to now is        1.5 secs

     Computing kpt #:   119  of   512
     total cpu time spent up to now is        1.5 secs

     Computing kpt #:   120  of   512
     total cpu time spent up to now is        1.5 secs

     Computing kpt #:   121  of   512
     total cpu time spent up to now is        1.5 secs

     Computing kpt #:   122  of   512
     total cpu time spent up to now is        1.5 secs

     Computing kpt #:   123  of   512
     total cpu time spent up to now is        1.5 secs

     Computing kpt #:   124  of   512
     total cpu time spent up to now is        1.5 secs

     Computing kpt #:   125  of   512
     total cpu time spent up to now is        1.6 secs

     Computing kpt #:   126  of   512
     total cpu time spent up to now is        1.6 secs

     Computing kpt #:   127  of   512
     total cpu time spent up to now is        1.6 secs

     Computing kpt #:   128  of   512
     total cpu time spent up to now is        1.6 secs

     Computing kpt #:   129  of   512
     total cpu time spent up to now is        1.6 secs

     Computing kpt #:   130  of   512
     total cpu time spent up to now is        1.6 secs

     Computing kpt #:   131  of   512
     total cpu time spent up to now is        1.6 secs

     Computing kpt #:   132  of   512
     total cpu time spent up to now is        1.6 secs

     Computing kpt #:   133  of   512
     total cpu time spent up to now is        1.6 secs

     Computing kpt #:   134  of   512
     total cpu time spent up to now is        1.6 secs

     Computing kpt #:   135  of   512
     total cpu time spent up to now is        1.6 secs

     Computing kpt #:   136  of   512
     total cpu time spent up to now is        1.6 secs

     Computing kpt #:   137  of   512
     total cpu time spent up to now is        1.7 secs

     Computing kpt #:   138  of   512
     total cpu time spent up to now is        1.7 secs

     Computing kpt #:   139  of   512
     total cpu time spent up to now is        1.7 secs

     Computing kpt #:   140  of   512
     total cpu time spent up to now is        1.7 secs

     Computing kpt #:   141  of   512
     total cpu time spent up to now is        1.7 secs

     Computing kpt #:   142  of   512
     total cpu time spent up to now is        1.7 secs

     Computing kpt #:   143  of   512
     total cpu time spent up to now is        1.7 secs

     Computing kpt #:   144  of   512
     total cpu time spent up to now is        1.7 secs

     Computing kpt #:   145  of   512
     total cpu time spent up to now is        1.7 secs

     Computing kpt #:   146  of   512
     total cpu time spent up to now is        1.7 secs

     Computing kpt #:   147  of   512
     total cpu time spent up to now is        1.7 secs

     Computing kpt #:   148  of   512
     total cpu time spent up to now is        1.8 secs

     Computing kpt #:   149  of   512
     total cpu time spent up to now is        1.8 secs

     Computing kpt #:   150  of   512
     total cpu time spent up to now is        1.8 secs

     Computing kpt #:   151  of   512
     total cpu time spent up to now is        1.8 secs

     Computing kpt #:   152  of   512
     total cpu time spent up to now is        1.8 secs

     Computing kpt #:   153  of   512
     total cpu time spent up to now is        1.8 secs

     Computing kpt #:   154  of   512
     total cpu time spent up to now is        1.8 secs

     Computing kpt #:   155  of   512
     total cpu time spent up to now is        1.8 secs

     Computing kpt #:   156  of   512
     total cpu time spent up to now is        1.8 secs

     Computing kpt #:   157  of   512
     total cpu time spent up to now is        1.8 secs

     Computing kpt #:   158  of   512
     total cpu time spent up to now is        1.8 secs

     Computing kpt #:   159  of   512
     total cpu time spent up to now is        1.8 secs

     Computing kpt #:   160  of   512
     total cpu time spent up to now is        1.9 secs

     Computing kpt #:   161  of   512
     total cpu time spent up to now is        1.9 secs

     Computing kpt #:   162  of   512
     total cpu time spent up to now is        1.9 secs

     Computing kpt #:   163  of   512
     total cpu time spent up to now is        1.9 secs

     Computing kpt #:   164  of   512
     total cpu time spent up to now is        1.9 secs

     Computing kpt #:   165  of   512
     total cpu time spent up to now is        1.9 secs

     Computing kpt #:   166  of   512
     total cpu time spent up to now is        1.9 secs

     Computing kpt #:   167  of   512
     total cpu time spent up to now is        1.9 secs

     Computing kpt #:   168  of   512
     total cpu time spent up to now is        1.9 secs

     Computing kpt #:   169  of   512
     total cpu time spent up to now is        1.9 secs

     Computing kpt #:   170  of   512
     total cpu time spent up to now is        1.9 secs

     Computing kpt #:   171  of   512
     total cpu time spent up to now is        1.9 secs

     Computing kpt #:   172  of   512
     total cpu time spent up to now is        1.9 secs

     Computing kpt #:   173  of   512
     total cpu time spent up to now is        2.0 secs

     Computing kpt #:   174  of   512
     total cpu time spent up to now is        2.0 secs

     Computing kpt #:   175  of   512
     total cpu time spent up to now is        2.0 secs

     Computing kpt #:   176  of   512
     total cpu time spent up to now is        2.0 secs

     Computing kpt #:   177  of   512
     total cpu time spent up to now is        2.0 secs

     Computing kpt #:   178  of   512
     total cpu time spent up to now is        2.0 secs

     Computing kpt #:   179  of   512
     total cpu time spent up to now is        2.0 secs

     Computing kpt #:   180  of   512
     total cpu time spent up to now is        2.0 secs

     Computing kpt #:   181  of   512
     total cpu time spent up to now is        2.0 secs

     Computing kpt #:   182  of   512
     total cpu time spent up to now is        2.0 secs

     Computing kpt #:   183  of   512
     total cpu time spent up to now is        2.0 secs

     Computing kpt #:   184  of   512
     total cpu time spent up to now is        2.0 secs

     Computing kpt #:   185  of   512
     total cpu time spent up to now is        2.0 secs

     Computing kpt #:   186  of   512
     total cpu time spent up to now is        2.1 secs

     Computing kpt #:   187  of   512
     total cpu time spent up to now is        2.1 secs

     Computing kpt #:   188  of   512
     total cpu time spent up to now is        2.1 secs

     Computing kpt #:   189  of   512
     total cpu time spent up to now is        2.1 secs

     Computing kpt #:   190  of   512
     total cpu time spent up to now is        2.1 secs

     Computing kpt #:   191  of   512
     total cpu time spent up to now is        2.1 secs

     Computing kpt #:   192  of   512
     total cpu time spent up to now is        2.1 secs

     Computing kpt #:   193  of   512
     total cpu time spent up to now is        2.1 secs

     Computing kpt #:   194  of   512
     total cpu time spent up to now is        2.1 secs

     Computing kpt #:   195  of   512
     total cpu time spent up to now is        2.1 secs

     Computing kpt #:   196  of   512
     total cpu time spent up to now is        2.1 secs

     Computing kpt #:   197  of   512
     total cpu time spent up to now is        2.1 secs

     Computing kpt #:   198  of   512
     total cpu time spent up to now is        2.2 secs

     Computing kpt #:   199  of   512
     total cpu time spent up to now is        2.2 secs

     Computing kpt #:   200  of   512
     total cpu time spent up to now is        2.2 secs

     Computing kpt #:   201  of   512
     total cpu time spent up to now is        2.2 secs

     Computing kpt #:   202  of   512
     total cpu time spent up to now is        2.2 secs

     Computing kpt #:   203  of   512
     total cpu time spent up to now is        2.2 secs

     Computing kpt #:   204  of   512
     total cpu time spent up to now is        2.2 secs

     Computing kpt #:   205  of   512
     total cpu time spent up to now is        2.2 secs

     Computing kpt #:   206  of   512
     total cpu time spent up to now is        2.2 secs

     Computing kpt #:   207  of   512
     total cpu time spent up to now is        2.2 secs

     Computing kpt #:   208  of   512
     total cpu time spent up to now is        2.2 secs

     Computing kpt #:   209  of   512
     total cpu time spent up to now is        2.2 secs

     Computing kpt #:   210  of   512
     total cpu time spent up to now is        2.2 secs

     Computing kpt #:   211  of   512
     total cpu time spent up to now is        2.3 secs

     Computing kpt #:   212  of   512
     total cpu time spent up to now is        2.3 secs

     Computing kpt #:   213  of   512
     total cpu time spent up to now is        2.3 secs

     Computing kpt #:   214  of   512
     total cpu time spent up to now is        2.3 secs

     Computing kpt #:   215  of   512
     total cpu time spent up to now is        2.3 secs

     Computing kpt #:   216  of   512
     total cpu time spent up to now is        2.3 secs

     Computing kpt #:   217  of   512
     total cpu time spent up to now is        2.3 secs

     Computing kpt #:   218  of   512
     total cpu time spent up to now is        2.3 secs

     Computing kpt #:   219  of   512
     total cpu time spent up to now is        2.3 secs

     Computing kpt #:   220  of   512
     total cpu time spent up to now is        2.3 secs

     Computing kpt #:   221  of   512
     total cpu time spent up to now is        2.3 secs

     Computing kpt #:   222  of   512
     total cpu time spent up to now is        2.3 secs

     Computing kpt #:   223  of   512
     total cpu time spent up to now is        2.4 secs

     Computing kpt #:   224  of   512
     total cpu time spent up to now is        2.4 secs

     Computing kpt #:   225  of   512
     total cpu time spent up to now is        2.4 secs

     Computing kpt #:   226  of   512
     total cpu time spent up to now is        2.4 secs

     Computing kpt #:   227  of   512
     total cpu time spent up to now is        2.4 secs

     Computing kpt #:   228  of   512
     total cpu time spent up to now is        2.4 secs

     Computing kpt #:   229  of   512
     total cpu time spent up to now is        2.4 secs

     Computing kpt #:   230  of   512
     total cpu time spent up to now is        2.4 secs

     Computing kpt #:   231  of   512
     total cpu time spent up to now is        2.4 secs

     Computing kpt #:   232  of   512
     total cpu time spent up to now is        2.4 secs

     Computing kpt #:   233  of   512
     total cpu time spent up to now is        2.4 secs

     Computing kpt #:   234  of   512
     total cpu time spent up to now is        2.4 secs

     Computing kpt #:   235  of   512
     total cpu time spent up to now is        2.5 secs

     Computing kpt #:   236  of   512
     total cpu time spent up to now is        2.5 secs

     Computing kpt #:   237  of   512
     total cpu time spent up to now is        2.5 secs

     Computing kpt #:   238  of   512
     total cpu time spent up to now is        2.5 secs

     Computing kpt #:   239  of   512
     total cpu time spent up to now is        2.5 secs

     Computing kpt #:   240  of   512
     total cpu time spent up to now is        2.5 secs

     Computing kpt #:   241  of   512
     total cpu time spent up to now is        2.5 secs

     Computing kpt #:   242  of   512
     total cpu time spent up to now is        2.5 secs

     Computing kpt #:   243  of   512
     total cpu time spent up to now is        2.5 secs

     Computing kpt #:   244  of   512
     total cpu time spent up to now is        2.5 secs

     Computing kpt #:   245  of   512
     total cpu time spent up to now is        2.5 secs

     Computing kpt #:   246  of   512
     total cpu time spent up to now is        2.5 secs

     Computing kpt #:   247  of   512
     total cpu time spent up to now is        2.5 secs

     Computing kpt #:   248  of   512
     total cpu time spent up to now is        2.6 secs

     Computing kpt #:   249  of   512
     total cpu time spent up to now is        2.6 secs

     Computing kpt #:   250  of   512
     total cpu time spent up to now is        2.6 secs

     Computing kpt #:   251  of   512
     total cpu time spent up to now is        2.6 secs

     Computing kpt #:   252  of   512
     total cpu time spent up to now is        2.6 secs

     Computing kpt #:   253  of   512
     total cpu time spent up to now is        2.6 secs

     Computing kpt #:   254  of   512
     total cpu time spent up to now is        2.6 secs

     Computing kpt #:   255  of   512
     total cpu time spent up to now is        2.6 secs

     Computing kpt #:   256  of   512
     total cpu time spent up to now is        2.6 secs

     Computing kpt #:   257  of   512
     total cpu time spent up to now is        2.6 secs

     Computing kpt #:   258  of   512
     total cpu time spent up to now is        2.6 secs

     Computing kpt #:   259  of   512
     total cpu time spent up to now is        2.7 secs

     Computing kpt #:   260  of   512
     total cpu time spent up to now is        2.7 secs

     Computing kpt #:   261  of   512
     total cpu time spent up to now is        2.7 secs

     Computing kpt #:   262  of   512
     total cpu time spent up to now is        2.7 secs

     Computing kpt #:   263  of   512
     total cpu time spent up to now is        2.7 secs

     Computing kpt #:   264  of   512
     total cpu time spent up to now is        2.7 secs

     Computing kpt #:   265  of   512
     total cpu time spent up to now is        2.7 secs

     Computing kpt #:   266  of   512
     total cpu time spent up to now is        2.7 secs

     Computing kpt #:   267  of   512
     total cpu time spent up to now is        2.7 secs

     Computing kpt #:   268  of   512
     total cpu time spent up to now is        2.7 secs

     Computing kpt #:   269  of   512
     total cpu time spent up to now is        2.7 secs

     Computing kpt #:   270  of   512
     total cpu time spent up to now is        2.7 secs

     Computing kpt #:   271  of   512
     total cpu time spent up to now is        2.8 secs

     Computing kpt #:   272  of   512
     total cpu time spent up to now is        2.8 secs

     Computing kpt #:   273  of   512
     total cpu time spent up to now is        2.8 secs

     Computing kpt #:   274  of   512
     total cpu time spent up to now is        2.8 secs

     Computing kpt #:   275  of   512
     total cpu time spent up to now is        2.8 secs

     Computing kpt #:   276  of   512
     total cpu time spent up to now is        2.8 secs

     Computing kpt #:   277  of   512
     total cpu time spent up to now is        2.8 secs

     Computing kpt #:   278  of   512
     total cpu time spent up to now is        2.8 secs

     Computing kpt #:   279  of   512
     total cpu time spent up to now is        2.8 secs

     Computing kpt #:   280  of   512
     total cpu time spent up to now is        2.8 secs

     Computing kpt #:   281  of   512
     total cpu time spent up to now is        2.8 secs

     Computing kpt #:   282  of   512
     total cpu time spent up to now is        2.8 secs

     Computing kpt #:   283  of   512
     total cpu time spent up to now is        2.8 secs

     Computing kpt #:   284  of   512
     total cpu time spent up to now is        2.9 secs

     Computing kpt #:   285  of   512
     total cpu time spent up to now is        2.9 secs

     Computing kpt #:   286  of   512
     total cpu time spent up to now is        2.9 secs

     Computing kpt #:   287  of   512
     total cpu time spent up to now is        2.9 secs

     Computing kpt #:   288  of   512
     total cpu time spent up to now is        2.9 secs

     Computing kpt #:   289  of   512
     total cpu time spent up to now is        2.9 secs

     Computing kpt #:   290  of   512
     total cpu time spent up to now is        2.9 secs

     Computing kpt #:   291  of   512
     total cpu time spent up to now is        2.9 secs

     Computing kpt #:   292  of   512
     total cpu time spent up to now is        2.9 secs

     Computing kpt #:   293  of   512
     total cpu time spent up to now is        2.9 secs

     Computing kpt #:   294  of   512
     total cpu time spent up to now is        2.9 secs

     Computing kpt #:   295  of   512
     total cpu time spent up to now is        2.9 secs

     Computing kpt #:   296  of   512
     total cpu time spent up to now is        3.0 secs

     Computing kpt #:   297  of   512
     total cpu time spent up to now is        3.0 secs

     Computing kpt #:   298  of   512
     total cpu time spent up to now is        3.0 secs

     Computing kpt #:   299  of   512
     total cpu time spent up to now is        3.0 secs

     Computing kpt #:   300  of   512
     total cpu time spent up to now is        3.0 secs

     Computing kpt #:   301  of   512
     total cpu time spent up to now is        3.0 secs

     Computing kpt #:   302  of   512
     total cpu time spent up to now is        3.0 secs

     Computing kpt #:   303  of   512
     total cpu time spent up to now is        3.0 secs

     Computing kpt #:   304  of   512
     total cpu time spent up to now is        3.0 secs

     Computing kpt #:   305  of   512
     total cpu time spent up to now is        3.0 secs

     Computing kpt #:   306  of   512
     total cpu time spent up to now is        3.0 secs

     Computing kpt #:   307  of   512
     total cpu time spent up to now is        3.0 secs

     Computing kpt #:   308  of   512
     total cpu time spent up to now is        3.1 secs

     Computing kpt #:   309  of   512
     total cpu time spent up to now is        3.1 secs

     Computing kpt #:   310  of   512
     total cpu time spent up to now is        3.1 secs

     Computing kpt #:   311  of   512
     total cpu time spent up to now is        3.1 secs

     Computing kpt #:   312  of   512
     total cpu time spent up to now is        3.1 secs

     Computing kpt #:   313  of   512
     total cpu time spent up to now is        3.1 secs

     Computing kpt #:   314  of   512
     total cpu time spent up to now is        3.1 secs

     Computing kpt #:   315  of   512
     total cpu time spent up to now is        3.1 secs

     Computing kpt #:   316  of   512
     total cpu time spent up to now is        3.1 secs

     Computing kpt #:   317  of   512
     total cpu time spent up to now is        3.1 secs

     Computing kpt #:   318  of   512
     total cpu time spent up to now is        3.1 secs

     Computing kpt #:   319  of   512
     total cpu time spent up to now is        3.1 secs

     Computing kpt #:   320  of   512
     total cpu time spent up to now is        3.1 secs

     Computing kpt #:   321  of   512
     total cpu time spent up to now is        3.2 secs

     Computing kpt #:   322  of   512
     total cpu time spent up to now is        3.2 secs

     Computing kpt #:   323  of   512
     total cpu time spent up to now is        3.2 secs

     Computing kpt #:   324  of   512
     total cpu time spent up to now is        3.2 secs

     Computing kpt #:   325  of   512
     total cpu time spent up to now is        3.2 secs

     Computing kpt #:   326  of   512
     total cpu time spent up to now is        3.2 secs

     Computing kpt #:   327  of   512
     total cpu time spent up to now is        3.2 secs

     Computing kpt #:   328  of   512
     total cpu time spent up to now is        3.2 secs

     Computing kpt #:   329  of   512
     total cpu time spent up to now is        3.2 secs

     Computing kpt #:   330  of   512
     total cpu time spent up to now is        3.2 secs

     Computing kpt #:   331  of   512
     total cpu time spent up to now is        3.2 secs

     Computing kpt #:   332  of   512
     total cpu time spent up to now is        3.3 secs

     Computing kpt #:   333  of   512
     total cpu time spent up to now is        3.3 secs

     Computing kpt #:   334  of   512
     total cpu time spent up to now is        3.3 secs

     Computing kpt #:   335  of   512
     total cpu time spent up to now is        3.3 secs

     Computing kpt #:   336  of   512
     total cpu time spent up to now is        3.3 secs

     Computing kpt #:   337  of   512
     total cpu time spent up to now is        3.3 secs

     Computing kpt #:   338  of   512
     total cpu time spent up to now is        3.3 secs

     Computing kpt #:   339  of   512
     total cpu time spent up to now is        3.3 secs

     Computing kpt #:   340  of   512
     total cpu time spent up to now is        3.3 secs

     Computing kpt #:   341  of   512
     total cpu time spent up to now is        3.3 secs

     Computing kpt #:   342  of   512
     total cpu time spent up to now is        3.3 secs

     Computing kpt #:   343  of   512
     total cpu time spent up to now is        3.3 secs

     Computing kpt #:   344  of   512
     total cpu time spent up to now is        3.3 secs

     Computing kpt #:   345  of   512
     total cpu time spent up to now is        3.4 secs

     Computing kpt #:   346  of   512
     total cpu time spent up to now is        3.4 secs

     Computing kpt #:   347  of   512
     total cpu time spent up to now is        3.4 secs

     Computing kpt #:   348  of   512
     total cpu time spent up to now is        3.4 secs

     Computing kpt #:   349  of   512
     total cpu time spent up to now is        3.4 secs

     Computing kpt #:   350  of   512
     total cpu time spent up to now is        3.4 secs

     Computing kpt #:   351  of   512
     total cpu time spent up to now is        3.4 secs

     Computing kpt #:   352  of   512
     total cpu time spent up to now is        3.4 secs

     Computing kpt #:   353  of   512
     total cpu time spent up to now is        3.4 secs

     Computing kpt #:   354  of   512
     total cpu time spent up to now is        3.4 secs

     Computing kpt #:   355  of   512
     total cpu time spent up to now is        3.4 secs

     Computing kpt #:   356  of   512
     total cpu time spent up to now is        3.4 secs

     Computing kpt #:   357  of   512
     total cpu time spent up to now is        3.5 secs

     Computing kpt #:   358  of   512
     total cpu time spent up to now is        3.5 secs

     Computing kpt #:   359  of   512
     total cpu time spent up to now is        3.5 secs

     Computing kpt #:   360  of   512
     total cpu time spent up to now is        3.5 secs

     Computing kpt #:   361  of   512
     total cpu time spent up to now is        3.5 secs

     Computing kpt #:   362  of   512
     total cpu time spent up to now is        3.5 secs

     Computing kpt #:   363  of   512
     total cpu time spent up to now is        3.5 secs

     Computing kpt #:   364  of   512
     total cpu time spent up to now is        3.5 secs

     Computing kpt #:   365  of   512
     total cpu time spent up to now is        3.5 secs

     Computing kpt #:   366  of   512
     total cpu time spent up to now is        3.5 secs

     Computing kpt #:   367  of   512
     total cpu time spent up to now is        3.5 secs

     Computing kpt #:   368  of   512
     total cpu time spent up to now is        3.5 secs

     Computing kpt #:   369  of   512
     total cpu time spent up to now is        3.6 secs

     Computing kpt #:   370  of   512
     total cpu time spent up to now is        3.6 secs

     Computing kpt #:   371  of   512
     total cpu time spent up to now is        3.6 secs

     Computing kpt #:   372  of   512
     total cpu time spent up to now is        3.6 secs

     Computing kpt #:   373  of   512
     total cpu time spent up to now is        3.6 secs

     Computing kpt #:   374  of   512
     total cpu time spent up to now is        3.6 secs

     Computing kpt #:   375  of   512
     total cpu time spent up to now is        3.6 secs

     Computing kpt #:   376  of   512
     total cpu time spent up to now is        3.6 secs

     Computing kpt #:   377  of   512
     total cpu time spent up to now is        3.6 secs

     Computing kpt #:   378  of   512
     total cpu time spent up to now is        3.6 secs

     Computing kpt #:   379  of   512
     total cpu time spent up to now is        3.6 secs

     Computing kpt #:   380  of   512
     total cpu time spent up to now is        3.6 secs

     Computing kpt #:   381  of   512
     total cpu time spent up to now is        3.6 secs

     Computing kpt #:   382  of   512
     total cpu time spent up to now is        3.7 secs

     Computing kpt #:   383  of   512
     total cpu time spent up to now is        3.7 secs

     Computing kpt #:   384  of   512
     total cpu time spent up to now is        3.7 secs

     Computing kpt #:   385  of   512
     total cpu time spent up to now is        3.7 secs

     Computing kpt #:   386  of   512
     total cpu time spent up to now is        3.7 secs

     Computing kpt #:   387  of   512
     total cpu time spent up to now is        3.7 secs

     Computing kpt #:   388  of   512
     total cpu time spent up to now is        3.7 secs

     Computing kpt #:   389  of   512
     total cpu time spent up to now is        3.7 secs

     Computing kpt #:   390  of   512
     total cpu time spent up to now is        3.7 secs

     Computing kpt #:   391  of   512
     total cpu time spent up to now is        3.7 secs

     Computing kpt #:   392  of   512
     total cpu time spent up to now is        3.7 secs

     Computing kpt #:   393  of   512
     total cpu time spent up to now is        3.8 secs

     Computing kpt #:   394  of   512
     total cpu time spent up to now is        3.8 secs

     Computing kpt #:   395  of   512
     total cpu time spent up to now is        3.8 secs

     Computing kpt #:   396  of   512
     total cpu time spent up to now is        3.8 secs

     Computing kpt #:   397  of   512
     total cpu time spent up to now is        3.8 secs

     Computing kpt #:   398  of   512
     total cpu time spent up to now is        3.8 secs

     Computing kpt #:   399  of   512
     total cpu time spent up to now is        3.8 secs

     Computing kpt #:   400  of   512
     total cpu time spent up to now is        3.8 secs

     Computing kpt #:   401  of   512
     total cpu time spent up to now is        3.8 secs

     Computing kpt #:   402  of   512
     total cpu time spent up to now is        3.8 secs

     Computing kpt #:   403  of   512
     total cpu time spent up to now is        3.8 secs

     Computing kpt #:   404  of   512
     total cpu time spent up to now is        3.8 secs

     Computing kpt #:   405  of   512
     total cpu time spent up to now is        3.8 secs

     Computing kpt #:   406  of   512
     total cpu time spent up to now is        3.9 secs

     Computing kpt #:   407  of   512
     total cpu time spent up to now is        3.9 secs

     Computing kpt #:   408  of   512
     total cpu time spent up to now is        3.9 secs

     Computing kpt #:   409  of   512
     total cpu time spent up to now is        3.9 secs

     Computing kpt #:   410  of   512
     total cpu time spent up to now is        3.9 secs

     Computing kpt #:   411  of   512
     total cpu time spent up to now is        3.9 secs

     Computing kpt #:   412  of   512
     total cpu time spent up to now is        3.9 secs

     Computing kpt #:   413  of   512
     total cpu time spent up to now is        3.9 secs

     Computing kpt #:   414  of   512
     total cpu time spent up to now is        3.9 secs

     Computing kpt #:   415  of   512
     total cpu time spent up to now is        3.9 secs

     Computing kpt #:   416  of   512
     total cpu time spent up to now is        3.9 secs

     Computing kpt #:   417  of   512
     total cpu time spent up to now is        3.9 secs

     Computing kpt #:   418  of   512
     total cpu time spent up to now is        3.9 secs

     Computing kpt #:   419  of   512
     total cpu time spent up to now is        4.0 secs

     Computing kpt #:   420  of   512
     total cpu time spent up to now is        4.0 secs

     Computing kpt #:   421  of   512
     total cpu time spent up to now is        4.0 secs

     Computing kpt #:   422  of   512
     total cpu time spent up to now is        4.0 secs

     Computing kpt #:   423  of   512
     total cpu time spent up to now is        4.0 secs

     Computing kpt #:   424  of   512
     total cpu time spent up to now is        4.0 secs

     Computing kpt #:   425  of   512
     total cpu time spent up to now is        4.0 secs

     Computing kpt #:   426  of   512
     total cpu time spent up to now is        4.0 secs

     Computing kpt #:   427  of   512
     total cpu time spent up to now is        4.0 secs

     Computing kpt #:   428  of   512
     total cpu time spent up to now is        4.0 secs

     Computing kpt #:   429  of   512
     total cpu time spent up to now is        4.0 secs

     Computing kpt #:   430  of   512
     total cpu time spent up to now is        4.0 secs

     Computing kpt #:   431  of   512
     total cpu time spent up to now is        4.0 secs

     Computing kpt #:   432  of   512
     total cpu time spent up to now is        4.1 secs

     Computing kpt #:   433  of   512
     total cpu time spent up to now is        4.1 secs

     Computing kpt #:   434  of   512
     total cpu time spent up to now is        4.1 secs

     Computing kpt #:   435  of   512
     total cpu time spent up to now is        4.1 secs

     Computing kpt #:   436  of   512
     total cpu time spent up to now is        4.1 secs

     Computing kpt #:   437  of   512
     total cpu time spent up to now is        4.1 secs

     Computing kpt #:   438  of   512
     total cpu time spent up to now is        4.1 secs

     Computing kpt #:   439  of   512
     total cpu time spent up to now is        4.1 secs

     Computing kpt #:   440  of   512
     total cpu time spent up to now is        4.1 secs

     Computing kpt #:   441  of   512
     total cpu time spent up to now is        4.1 secs

     Computing kpt #:   442  of   512
     total cpu time spent up to now is        4.1 secs

     Computing kpt #:   443  of   512
     total cpu time spent up to now is        4.1 secs

     Computing kpt #:   444  of   512
     total cpu time spent up to now is        4.2 secs

     Computing kpt #:   445  of   512
     total cpu time spent up to now is        4.2 secs

     Computing kpt #:   446  of   512
     total cpu time spent up to now is        4.2 secs

     Computing kpt #:   447  of   512
     total cpu time spent up to now is        4.2 secs

     Computing kpt #:   448  of   512
     total cpu time spent up to now is        4.2 secs

     Computing kpt #:   449  of   512
     total cpu time spent up to now is        4.2 secs

     Computing kpt #:   450  of   512
     total cpu time spent up to now is        4.2 secs

     Computing kpt #:   451  of   512
     total cpu time spent up to now is        4.2 secs

     Computing kpt #:   452  of   512
     total cpu time spent up to now is        4.2 secs

     Computing kpt #:   453  of   512
     total cpu time spent up to now is        4.2 secs

     Computing kpt #:   454  of   512
     total cpu time spent up to now is        4.3 secs

     Computing kpt #:   455  of   512
     total cpu time spent up to now is        4.3 secs

     Computing kpt #:   456  of   512
     total cpu time spent up to now is        4.3 secs

     Computing kpt #:   457  of   512
     total cpu time spent up to now is        4.3 secs

     Computing kpt #:   458  of   512
     total cpu time spent up to now is        4.3 secs

     Computing kpt #:   459  of   512
     total cpu time spent up to now is        4.3 secs

     Computing kpt #:   460  of   512
     total cpu time spent up to now is        4.3 secs

     Computing kpt #:   461  of   512
     total cpu time spent up to now is        4.3 secs

     Computing kpt #:   462  of   512
     total cpu time spent up to now is        4.3 secs

     Computing kpt #:   463  of   512
     total cpu time spent up to now is        4.3 secs

     Computing kpt #:   464  of   512
     total cpu time spent up to now is        4.3 secs

     Computing kpt #:   465  of   512
     total cpu time spent up to now is        4.3 secs

     Computing kpt #:   466  of   512
     total cpu time spent up to now is        4.4 secs

     Computing kpt #:   467  of   512
     total cpu time spent up to now is        4.4 secs

     Computing kpt #:   468  of   512
     total cpu time spent up to now is        4.4 secs

     Computing kpt #:   469  of   512
     total cpu time spent up to now is        4.4 secs

     Computing kpt #:   470  of   512
     total cpu time spent up to now is        4.4 secs

     Computing kpt #:   471  of   512
     total cpu time spent up to now is        4.4 secs

     Computing kpt #:   472  of   512
     total cpu time spent up to now is        4.4 secs

     Computing kpt #:   473  of   512
     total cpu time spent up to now is        4.4 secs

     Computing kpt #:   474  of   512
     total cpu time spent up to now is        4.4 secs

     Computing kpt #:   475  of   512
     total cpu time spent up to now is        4.4 secs

     Computing kpt #:   476  of   512
     total cpu time spent up to now is        4.4 secs

     Computing kpt #:   477  of   512
     total cpu time spent up to now is        4.4 secs

     Computing kpt #:   478  of   512
     total cpu time spent up to now is        4.5 secs

     Computing kpt #:   479  of   512
     total cpu time spent up to now is        4.5 secs

     Computing kpt #:   480  of   512
     total cpu time spent up to now is        4.5 secs

     Computing kpt #:   481  of   512
     total cpu time spent up to now is        4.5 secs

     Computing kpt #:   482  of   512
     total cpu time spent up to now is        4.5 secs

     Computing kpt #:   483  of   512
     total cpu time spent up to now is        4.5 secs

     Computing kpt #:   484  of   512
     total cpu time spent up to now is        4.5 secs

     Computing kpt #:   485  of   512
     total cpu time spent up to now is        4.5 secs

     Computing kpt #:   486  of   512
     total cpu time spent up to now is        4.5 secs

     Computing kpt #:   487  of   512
     total cpu time spent up to now is        4.5 secs

     Computing kpt #:   488  of   512
     total cpu time spent up to now is        4.5 secs

     Computing kpt #:   489  of   512
     total cpu time spent up to now is        4.5 secs

     Computing kpt #:   490  of   512
     total cpu time spent up to now is        4.5 secs

     Computing kpt #:   491  of   512
     total cpu time spent up to now is        4.6 secs

     Computing kpt #:   492  of   512
     total cpu time spent up to now is        4.6 secs

     Computing kpt #:   493  of   512
     total cpu time spent up to now is        4.6 secs

     Computing kpt #:   494  of   512
     total cpu time spent up to now is        4.6 secs

     Computing kpt #:   495  of   512
     total cpu time spent up to now is        4.6 secs

     Computing kpt #:   496  of   512
     total cpu time spent up to now is        4.6 secs

     Computing kpt #:   497  of   512
     total cpu time spent up to now is        4.6 secs

     Computing kpt #:   498  of   512
     total cpu time spent up to now is        4.6 secs

     Computing kpt #:   499  of   512
     total cpu time spent up to now is        4.6 secs

     Computing kpt #:   500  of   512
     total cpu time spent up to now is        4.6 secs

     Computing kpt #:   501  of   512
     total cpu time spent up to now is        4.6 secs

     Computing kpt #:   502  of   512
     total cpu time spent up to now is        4.7 secs

     Computing kpt #:   503  of   512
     total cpu time spent up to now is        4.7 secs

     Computing kpt #:   504  of   512
     total cpu time spent up to now is        4.7 secs

     Computing kpt #:   505  of   512
     total cpu time spent up to now is        4.7 secs

     Computing kpt #:   506  of   512
     total cpu time spent up to now is        4.7 secs

     Computing kpt #:   507  of   512
     total cpu time spent up to now is        4.7 secs

     Computing kpt #:   508  of   512
     total cpu time spent up to now is        4.7 secs

     Computing kpt #:   509  of   512
     total cpu time spent up to now is        4.7 secs

     Computing kpt #:   510  of   512
     total cpu time spent up to now is        4.7 secs

     Computing kpt #:   511  of   512
     total cpu time spent up to now is        4.7 secs

     Computing kpt #:   512  of   512
     total cpu time spent up to now is        4.8 secs

     ethr =  3.33E-12,  avg # of iterations = 36.8

     total cpu time spent up to now is        4.8 secs

     End of band structure calculation

          k = 0.0000 0.0000 0.0000 (   331 PWs)   bands (ev):

    -3.2532  20.4207  20.4207  20.4207

     occupation numbers 
     1.0000   0.0000   0.0000   0.0000

          k =-0.1250 0.1250-0.1250 (   316 PWs)   bands (ev):

    -2.8306  16.1289  19.4677  19.4677

     occupation numbers 
     1.0000   0.0000   0.0000   0.0000

          k =-0.2500 0.2500-0.2500 (   311 PWs)   bands (ev):

    -1.5701  11.2687  18.7018  18.7018

     occupation numbers 
     1.0000   0.0000   0.0000   0.0000

          k =-0.3750 0.3750-0.3750 (   308 PWs)   bands (ev):

     0.5064   6.9766  18.6101  18.6101

     occupation numbers 
     1.0000   1.0013   0.0000   0.0000

          k = 0.5000-0.5000 0.5000 (   302 PWs)   bands (ev):

     3.2691   3.4705  19.1836  19.1836

     occupation numbers 
     1.0000   1.0000   0.0000   0.0000

          k = 0.3750-0.3750 0.3750 (   308 PWs)   bands (ev):

     0.5064   6.9766  18.6101  18.6101

     occupation numbers 
     1.0000   1.0013   0.0000   0.0000

          k = 0.2500-0.2500 0.2500 (   311 PWs)   bands (ev):

    -1.5701  11.2687  18.7018  18.7018

     occupation numbers 
     1.0000   0.0000   0.0000   0.0000

          k = 0.1250-0.1250 0.1250 (   316 PWs)   bands (ev):

    -2.8306  16.1289  19.4677  19.4677

     occupation numbers 
     1.0000   0.0000   0.0000   0.0000

          k = 0.1250 0.1250 0.1250 (   316 PWs)   bands (ev):

    -2.8306  16.1289  19.4677  19.4677

     occupation numbers 
     1.0000   0.0000   0.0000   0.0000

          k = 0.0000 0.2500 0.0000 (   307 PWs)   bands (ev):

    -2.6899  17.7115  17.7115  17.9822

     occupation numbers 
     1.0000   0.0000   0.0000   0.0000

          k =-0.1250 0.3750-0.1250 (   308 PWs)   bands (ev):

    -1.7096  13.1258  16.6493  18.1733

     occupation numbers 
     1.0000   0.0000   0.0000   0.0000

          k =-0.2500 0.5000-0.2500 (   317 PWs)   bands (ev):

     0.0932   8.6717  16.3021  17.0303

     occupation numbers 
     1.0000   0.0000   0.0000   0.0000

          k = 0.6250-0.3750 0.6250 (   312 PWs)   bands (ev):

     2.6858   4.8512  15.4059  16.6736

     occupation numbers 
     1.0000   1.0000   0.0000   0.0000

          k = 0.5000-0.2500 0.5000 (   308 PWs)   bands (ev):

     1.7376   6.0426  14.5263  17.7646

     occupation numbers 
     1.0000   1.0000   0.0000   0.0000

          k = 0.3750-0.1250 0.3750 (   309 PWs)   bands (ev):

    -0.5974  10.0697  14.4266  19.5556

     occupation numbers 
     1.0000   0.0000   0.0000   0.0000

          k = 0.2500 0.0000 0.2500 (   317 PWs)   bands (ev):

    -2.1289  14.2719  15.5010  21.5185

     occupation numbers 
     1.0000   0.0000   0.0000   0.0000

          k = 0.2500 0.2500 0.2500 (   311 PWs)   bands (ev):

    -1.5701  11.2687  18.7018  18.7018

     occupation numbers 
     1.0000   0.0000   0.0000   0.0000

          k = 0.1250 0.3750 0.1250 (   308 PWs)   bands (ev):

    -1.7096  13.1258  16.6493  18.1733

     occupation numbers 
     1.0000   0.0000   0.0000   0.0000

          k = 0.0000 0.5000 0.0000 (   311 PWs)   bands (ev):

    -1.0136  15.3153  15.3266  15.3266

     occupation numbers 
     1.0000   0.0000   0.0000   0.0000

          k =-0.1250 0.6250-0.1250 (   316 PWs)   bands (ev):

     0.5049  11.0548  13.4053  14.7303

     occupation numbers 
     1.0000   0.0000   0.0000   0.0000

          k = 0.7500-0.2500 0.7500 (   311 PWs)   bands (ev):

     2.8155   7.0881  11.4830  14.8566

     occupation numbers 
     1.0000   1.0068   0.0000   0.0000

          k = 0.6250-0.1250 0.6250 (   307 PWs)   bands (ev):

     3.7613   5.8707  10.3622  15.7059

     occupation numbers 
     1.0000   1.0000   0.0000   0.0000

          k = 0.5000 0.0000 0.5000 (   315 PWs)   bands (ev):

     1.1914   9.0794  10.5765  17.2785

     occupation numbers 
     1.0000   0.0000   0.0000   0.0000

          k = 0.3750 0.1250 0.3750 (   309 PWs)   bands (ev):

    -0.5974  10.0697  14.4266  19.5556

     occupation numbers 
     1.0000   0.0000   0.0000   0.0000

          k = 0.3750 0.3750 0.3750 (   308 PWs)   bands (ev):

     0.5064   6.9766  18.6101  18.6101

     occupation numbers 
     1.0000   1.0013   0.0000   0.0000

          k = 0.2500 0.5000 0.2500 (   317 PWs)   bands (ev):

     0.0932   8.6717  16.3021  17.0303

     occupation numbers 
     1.0000   0.0000   0.0000   0.0000

          k = 0.1250 0.6250 0.1250 (   316 PWs)   bands (ev):

     0.5049  11.0548  13.4053  14.7303

     occupation numbers 
     1.0000   0.0000   0.0000   0.0000

          k = 0.0000 0.7500 0.0000 (   322 PWs)   bands (ev):

     1.7308  10.4183  13.6576  13.8886

     occupation numbers 
     1.0000   0.0000   0.0000   0.0000

          k = 0.8750-0.1250 0.8750 (   314 PWs)   bands (ev):

     3.7269   8.2117  10.0447  13.7707

     occupation numbers 
     1.0000   0.0038   0.0000   0.0000

          k = 0.7500 0.0000 0.7500 (   308 PWs)   bands (ev):

     5.9648   6.4896   7.4341  14.3755

     occupation numbers 
     1.0000   1.0000   1.0823   0.0000

          k = 0.6250 0.1250 0.6250 (   307 PWs)   bands (ev):

     3.7613   5.8707  10.3622  15.7059

     occupation numbers 
     1.0000   1.0000   0.0000   0.0000

          k = 0.5000 0.2500 0.5000 (   308 PWs)   bands (ev):

     1.7376   6.0426  14.5263  17.7646

     occupation numbers 
     1.0000   1.0000   0.0000   0.0000

          k =-0.5000-0.5000-0.5000 (   302 PWs)   bands (ev):

     3.2691   3.4705  19.1836  19.1836

     occupation numbers 
     1.0000   1.0000   0.0000   0.0000

          k =-0.6250-0.3750-0.6250 (   312 PWs)   bands (ev):

     2.6858   4.8512  15.4059  16.6736

     occupation numbers 
     1.0000   1.0000   0.0000   0.0000

          k =-0.7500-0.2500-0.7500 (   311 PWs)   bands (ev):

     2.8155   7.0881  11.4830  14.8566

     occupation numbers 
     1.0000   1.0068   0.0000   0.0000

          k =-0.8750-0.1250-0.8750 (   314 PWs)   bands (ev):

     3.7269   8.2117  10.0447  13.7707

     occupation numbers 
     1.0000   0.0038   0.0000   0.0000

          k = 0.0000-1.0000 0.0000 (   302 PWs)   bands (ev):

     4.9302   6.2414  13.1005  13.4097

     occupation numbers 
     1.0000   1.0000   0.0000   0.0000

          k =-0.1250-0.8750-0.1250 (   314 PWs)   bands (ev):

     3.7269   8.2117  10.0447  13.7707

     occupation numbers 
     1.0000   0.0038   0.0000   0.0000

          k =-0.2500-0.7500-0.2500 (   311 PWs)   bands (ev):

     2.8155   7.0881  11.4830  14.8566

     occupation numbers 
     1.0000   1.0068   0.0000   0.0000

          k =-0.3750-0.6250-0.3750 (   312 PWs)   bands (ev):

     2.6858   4.8512  15.4059  16.6736

     occupation numbers 
     1.0000   1.0000   0.0000   0.0000

          k =-0.3750-0.3750-0.3750 (   308 PWs)   bands (ev):

     0.5064   6.9766  18.6101  18.6101

     occupation numbers 
     1.0000   1.0013   0.0000   0.0000

          k =-0.5000-0.2500-0.5000 (   308 PWs)   bands (ev):

     1.7376   6.0426  14.5263  17.7646

     occupation numbers 
     1.0000   1.0000   0.0000   0.0000

          k =-0.6250-0.1250-0.6250 (   307 PWs)   bands (ev):

     3.7613   5.8707  10.3622  15.7059

     occupation numbers 
     1.0000   1.0000   0.0000   0.0000

          k =-0.7500 0.0000-0.7500 (   308 PWs)   bands (ev):

     5.9648   6.4896   7.4341  14.3755

     occupation numbers 
     1.0000   1.0000   1.0823   0.0000

          k = 0.1250-0.8750 0.1250 (   314 PWs)   bands (ev):

     3.7269   8.2117  10.0447  13.7707

     occupation numbers 
     1.0000   0.0038   0.0000   0.0000

          k = 0.0000-0.7500 0.0000 (   322 PWs)   bands (ev):

     1.7308  10.4183  13.6576  13.8886

     occupation numbers 
     1.0000   0.0000   0.0000   0.0000

          k =-0.1250-0.6250-0.1250 (   316 PWs)   bands (ev):

     0.5049  11.0548  13.4053  14.7303

     occupation numbers 
     1.0000   0.0000   0.0000   0.0000

          k =-0.2500-0.5000-0.2500 (   317 PWs)   bands (ev):

     0.0932   8.6717  16.3021  17.0303

     occupation numbers 
     1.0000   0.0000   0.0000   0.0000

          k =-0.2500-0.2500-0.2500 (   311 PWs)   bands (ev):

    -1.5701  11.2687  18.7018  18.7018

     occupation numbers 
     1.0000   0.0000   0.0000   0.0000

          k =-0.3750-0.1250-0.3750 (   309 PWs)   bands (ev):

    -0.5974  10.0697  14.4266  19.5556

     occupation numbers 
     1.0000   0.0000   0.0000   0.0000

          k =-0.5000 0.0000-0.5000 (   315 PWs)   bands (ev):

     1.1914   9.0794  10.5765  17.2785

     occupation numbers 
     1.0000   0.0000   0.0000   0.0000

          k =-0.6250 0.1250-0.6250 (   307 PWs)   bands (ev):

     3.7613   5.8707  10.3622  15.7059

     occupation numbers 
     1.0000   1.0000   0.0000   0.0000

          k = 0.2500-0.7500 0.2500 (   311 PWs)   bands (ev):

     2.8155   7.0881  11.4830  14.8566

     occupation numbers 
     1.0000   1.0068   0.0000   0.0000

          k = 0.1250-0.6250 0.1250 (   316 PWs)   bands (ev):

     0.5049  11.0548  13.4053  14.7303

     occupation numbers 
     1.0000   0.0000   0.0000   0.0000

          k = 0.0000-0.5000 0.0000 (   311 PWs)   bands (ev):

    -1.0136  15.3153  15.3266  15.3266

     occupation numbers 
     1.0000   0.0000   0.0000   0.0000

          k =-0.1250-0.3750-0.1250 (   308 PWs)   bands (ev):

    -1.7096  13.1258  16.6493  18.1733

     occupation numbers 
     1.0000   0.0000   0.0000   0.0000

          k =-0.1250-0.1250-0.1250 (   316 PWs)   bands (ev):

    -2.8306  16.1289  19.4677  19.4677

     occupation numbers 
     1.0000   0.0000   0.0000   0.0000

          k =-0.2500 0.0000-0.2500 (   317 PWs)   bands (ev):

    -2.1289  14.2719  15.5010  21.5185

     occupation numbers 
     1.0000   0.0000   0.0000   0.0000

          k =-0.3750 0.1250-0.3750 (   309 PWs)   bands (ev):

    -0.5974  10.0697  14.4266  19.5556

     occupation numbers 
     1.0000   0.0000   0.0000   0.0000

          k =-0.5000 0.2500-0.5000 (   308 PWs)   bands (ev):

     1.7376   6.0426  14.5263  17.7646

     occupation numbers 
     1.0000   1.0000   0.0000   0.0000

          k = 0.3750-0.6250 0.3750 (   312 PWs)   bands (ev):

     2.6858   4.8512  15.4059  16.6736

     occupation numbers 
     1.0000   1.0000   0.0000   0.0000

          k = 0.2500-0.5000 0.2500 (   317 PWs)   bands (ev):

     0.0932   8.6717  16.3021  17.0303

     occupation numbers 
     1.0000   0.0000   0.0000   0.0000

          k = 0.1250-0.3750 0.1250 (   308 PWs)   bands (ev):

    -1.7096  13.1258  16.6493  18.1733

     occupation numbers 
     1.0000   0.0000   0.0000   0.0000

          k = 0.0000-0.2500 0.0000 (   307 PWs)   bands (ev):

    -2.6899  17.7115  17.7115  17.9822

     occupation numbers 
     1.0000   0.0000   0.0000   0.0000

          k =-0.1250-0.1250 0.1250 (   316 PWs)   bands (ev):

    -2.8306  16.1289  19.4677  19.4677

     occupation numbers 
     1.0000   0.0000   0.0000   0.0000

          k =-0.2500 0.0000 0.0000 (   307 PWs)   bands (ev):

    -2.6899  17.7115  17.7115  17.9822

     occupation numbers 
     1.0000   0.0000   0.0000   0.0000

          k =-0.3750 0.1250-0.1250 (   308 PWs)   bands (ev):

    -1.7096  13.1258  16.6493  18.1733

     occupation numbers 
     1.0000   0.0000   0.0000   0.0000

          k =-0.5000 0.2500-0.2500 (   317 PWs)   bands (ev):

     0.0932   8.6717  16.3021  17.0303

     occupation numbers 
     1.0000   0.0000   0.0000   0.0000

          k = 0.3750-0.6250 0.6250 (   312 PWs)   bands (ev):

     2.6858   4.8512  15.4059  16.6736

     occupation numbers 
     1.0000   1.0000   0.0000   0.0000

          k = 0.2500-0.5000 0.5000 (   308 PWs)   bands (ev):

     1.7376   6.0426  14.5263  17.7646

     occupation numbers 
     1.0000   1.0000   0.0000   0.0000

          k = 0.1250-0.3750 0.3750 (   309 PWs)   bands (ev):

    -0.5974  10.0697  14.4266  19.5556

     occupation numbers 
     1.0000   0.0000   0.0000   0.0000

          k = 0.0000-0.2500 0.2500 (   317 PWs)   bands (ev):

    -2.1289  14.2719  15.5010  21.5185

     occupation numbers 
     1.0000   0.0000   0.0000   0.0000

          k = 0.0000 0.0000 0.2500 (   307 PWs)   bands (ev):

    -2.6899  17.7115  17.7115  17.9822

     occupation numbers 
     1.0000   0.0000   0.0000   0.0000

          k =-0.1250 0.1250 0.1250 (   316 PWs)   bands (ev):

    -2.8306  16.1289  19.4677  19.4677

     occupation numbers 
     1.0000   0.0000   0.0000   0.0000

          k =-0.2500 0.2500 0.0000 (   317 PWs)   bands (ev):

    -2.1289  14.2719  15.5010  21.5185

     occupation numbers 
     1.0000   0.0000   0.0000   0.0000

          k =-0.3750 0.3750-0.1250 (   309 PWs)   bands (ev):

    -0.5974  10.0697  14.4266  19.5556

     occupation numbers 
     1.0000   0.0000   0.0000   0.0000

          k = 0.5000-0.5000 0.7500 (   308 PWs)   bands (ev):

     1.7376   6.0426  14.5263  17.7646

     occupation numbers 
     1.0000   1.0000   0.0000   0.0000

          k = 0.3750-0.3750 0.6250 (   312 PWs)   bands (ev):

     2.6858   4.8512  15.4059  16.6736

     occupation numbers 
     1.0000   1.0000   0.0000   0.0000

          k = 0.2500-0.2500 0.5000 (   317 PWs)   bands (ev):

     0.0932   8.6717  16.3021  17.0303

     occupation numbers 
     1.0000   0.0000   0.0000   0.0000

          k = 0.1250-0.1250 0.3750 (   308 PWs)   bands (ev):

    -1.7096  13.1258  16.6493  18.1733

     occupation numbers 
     1.0000   0.0000   0.0000   0.0000

          k = 0.1250 0.1250 0.3750 (   308 PWs)   bands (ev):

    -1.7096  13.1258  16.6493  18.1733

     occupation numbers 
     1.0000   0.0000   0.0000   0.0000

          k = 0.0000 0.2500 0.2500 (   317 PWs)   bands (ev):

    -2.1289  14.2719  15.5010  21.5185

     occupation numbers 
     1.0000   0.0000   0.0000   0.0000

          k =-0.1250 0.3750 0.1250 (   308 PWs)   bands (ev):

    -1.7096  13.1258  16.6493  18.1733

     occupation numbers 
     1.0000   0.0000   0.0000   0.0000

          k =-0.2500 0.5000 0.0000 (   311 PWs)   bands (ev):

    -0.4592  11.6813  13.0740  16.5866

     occupation numbers 
     1.0000   0.0000   0.0000   0.0000

          k = 0.6250-0.3750 0.8750 (   313 PWs)   bands (ev):

     1.6000   7.9760  12.4019  14.4547

     occupation numbers 
     1.0000   0.0933   0.0000   0.0000

          k = 0.5000-0.2500 0.7500 (   308 PWs)   bands (ev):

     4.3120   4.5595  12.8025  13.2583

     occupation numbers 
     1.0000   1.0000   0.0000   0.0000

          k = 0.3750-0.1250 0.6250 (   313 PWs)   bands (ev):

     1.6000   7.9760  12.4019  14.4547

     occupation numbers 
     1.0000   0.0933   0.0000   0.0000

          k = 0.2500 0.0000 0.5000 (   311 PWs)   bands (ev):

    -0.4592  11.6813  13.0740  16.5866

     occupation numbers 
     1.0000   0.0000   0.0000   0.0000

          k = 0.2500 0.2500 0.5000 (   317 PWs)   bands (ev):

     0.0932   8.6717  16.3021  17.0303

     occupation numbers 
     1.0000   0.0000   0.0000   0.0000

          k = 0.1250 0.3750 0.3750 (   309 PWs)   bands (ev):

    -0.5974  10.0697  14.4266  19.5556

     occupation numbers 
     1.0000   0.0000   0.0000   0.0000

          k = 0.0000 0.5000 0.2500 (   311 PWs)   bands (ev):

    -0.4592  11.6813  13.0740  16.5866

     occupation numbers 
     1.0000   0.0000   0.0000   0.0000

          k =-0.1250 0.6250 0.1250 (   316 PWs)   bands (ev):

     0.5049  11.0548  13.4053  14.7303

     occupation numbers 
     1.0000   0.0000   0.0000   0.0000

          k = 0.7500-0.2500 1.0000 (   309 PWs)   bands (ev):

     2.2742  10.1210  10.8323  11.7088

     occupation numbers 
     1.0000   0.0000   0.0000   0.0000

          k = 0.6250-0.1250 0.8750 (   308 PWs)   bands (ev):

     4.7903   6.9156   9.2918  11.4448

     occupation numbers 
     1.0000   1.0004   0.0000   0.0000

          k = 0.5000 0.0000 0.7500 (   311 PWs)   bands (ev):

     3.8916   7.5205   8.9825  12.5483

     occupation numbers 
     1.0000   1.0366   0.0000   0.0000

          k = 0.3750 0.1250 0.6250 (   313 PWs)   bands (ev):

     1.6000   7.9760  12.4019  14.4547

     occupation numbers 
     1.0000   0.0933   0.0000   0.0000

          k =-0.6250-0.6250-0.3750 (   312 PWs)   bands (ev):

     2.6858   4.8512  15.4059  16.6736

     occupation numbers 
     1.0000   1.0000   0.0000   0.0000

          k =-0.7500-0.5000-0.5000 (   308 PWs)   bands (ev):

     1.7376   6.0426  14.5263  17.7646

     occupation numbers 
     1.0000   1.0000   0.0000   0.0000

          k =-0.8750-0.3750-0.6250 (   313 PWs)   bands (ev):

     1.6000   7.9760  12.4019  14.4547

     occupation numbers 
     1.0000   0.0933   0.0000   0.0000

          k =-1.0000-0.2500-0.7500 (   309 PWs)   bands (ev):

     2.2742  10.1210  10.8323  11.7088

     occupation numbers 
     1.0000   0.0000   0.0000   0.0000

          k =-0.1250-1.1250 0.1250 (   314 PWs)   bands (ev):

     3.7269   8.2117  10.0447  13.7707

     occupation numbers 
     1.0000   0.0038   0.0000   0.0000

          k =-0.2500-1.0000 0.0000 (   308 PWs)   bands (ev):

     5.4472   6.7821   9.6005  11.0981

     occupation numbers 
     1.0000   1.0000   0.0000   0.0000

          k =-0.3750-0.8750-0.1250 (   308 PWs)   bands (ev):

     4.7903   6.9156   9.2918  11.4448

     occupation numbers 
     1.0000   1.0004   0.0000   0.0000

          k =-0.5000-0.7500-0.2500 (   308 PWs)   bands (ev):

     4.3120   4.5595  12.8025  13.2583

     occupation numbers 
     1.0000   1.0000   0.0000   0.0000

          k =-0.5000-0.5000-0.2500 (   308 PWs)   bands (ev):

     1.7376   6.0426  14.5263  17.7646

     occupation numbers 
     1.0000   1.0000   0.0000   0.0000

          k =-0.6250-0.3750-0.3750 (   312 PWs)   bands (ev):

     2.6858   4.8512  15.4059  16.6736

     occupation numbers 
     1.0000   1.0000   0.0000   0.0000

          k =-0.7500-0.2500-0.5000 (   308 PWs)   bands (ev):

     4.3120   4.5595  12.8025  13.2583

     occupation numbers 
     1.0000   1.0000   0.0000   0.0000

          k =-0.8750-0.1250-0.6250 (   308 PWs)   bands (ev):

     4.7903   6.9156   9.2918  11.4448

     occupation numbers 
     1.0000   1.0004   0.0000   0.0000

          k = 0.0000-1.0000 0.2500 (   308 PWs)   bands (ev):

     5.4472   6.7821   9.6005  11.0981

     occupation numbers 
     1.0000   1.0000   0.0000   0.0000

          k =-0.1250-0.8750 0.1250 (   314 PWs)   bands (ev):

     3.7269   8.2117  10.0447  13.7707

     occupation numbers 
     1.0000   0.0038   0.0000   0.0000

          k =-0.2500-0.7500 0.0000 (   309 PWs)   bands (ev):

     2.2742  10.1210  10.8323  11.7088

     occupation numbers 
     1.0000   0.0000   0.0000   0.0000

          k =-0.3750-0.6250-0.1250 (   313 PWs)   bands (ev):

     1.6000   7.9760  12.4019  14.4547

     occupation numbers 
     1.0000   0.0933   0.0000   0.0000

          k =-0.3750-0.3750-0.1250 (   309 PWs)   bands (ev):

    -0.5974  10.0697  14.4266  19.5556

     occupation numbers 
     1.0000   0.0000   0.0000   0.0000

          k =-0.5000-0.2500-0.2500 (   317 PWs)   bands (ev):

     0.0932   8.6717  16.3021  17.0303

     occupation numbers 
     1.0000   0.0000   0.0000   0.0000

          k =-0.6250-0.1250-0.3750 (   313 PWs)   bands (ev):

     1.6000   7.9760  12.4019  14.4547

     occupation numbers 
     1.0000   0.0933   0.0000   0.0000

          k =-0.7500 0.0000-0.5000 (   311 PWs)   bands (ev):

     3.8916   7.5205   8.9825  12.5483

     occupation numbers 
     1.0000   1.0366   0.0000   0.0000

          k = 0.1250-0.8750 0.3750 (   308 PWs)   bands (ev):

     4.7903   6.9156   9.2918  11.4448

     occupation numbers 
     1.0000   1.0004   0.0000   0.0000

          k = 0.0000-0.7500 0.2500 (   309 PWs)   bands (ev):

     2.2742  10.1210  10.8323  11.7088

     occupation numbers 
     1.0000   0.0000   0.0000   0.0000

          k =-0.1250-0.6250 0.1250 (   316 PWs)   bands (ev):

     0.5049  11.0548  13.4053  14.7303

     occupation numbers 
     1.0000   0.0000   0.0000   0.0000

          k =-0.2500-0.5000 0.0000 (   311 PWs)   bands (ev):

    -0.4592  11.6813  13.0740  16.5866

     occupation numbers 
     1.0000   0.0000   0.0000   0.0000

          k =-0.2500-0.2500 0.0000 (   317 PWs)   bands (ev):

    -2.1289  14.2719  15.5010  21.5185

     occupation numbers 
     1.0000   0.0000   0.0000   0.0000

          k =-0.3750-0.1250-0.1250 (   308 PWs)   bands (ev):

    -1.7096  13.1258  16.6493  18.1733

     occupation numbers 
     1.0000   0.0000   0.0000   0.0000

          k =-0.5000 0.0000-0.2500 (   311 PWs)   bands (ev):

    -0.4592  11.6813  13.0740  16.5866

     occupation numbers 
     1.0000   0.0000   0.0000   0.0000

          k =-0.6250 0.1250-0.3750 (   313 PWs)   bands (ev):

     1.6000   7.9760  12.4019  14.4547

     occupation numbers 
     1.0000   0.0933   0.0000   0.0000

          k = 0.2500-0.7500 0.5000 (   308 PWs)   bands (ev):

     4.3120   4.5595  12.8025  13.2583

     occupation numbers 
     1.0000   1.0000   0.0000   0.0000

          k = 0.1250-0.6250 0.3750 (   313 PWs)   bands (ev):

     1.6000   7.9760  12.4019  14.4547

     occupation numbers 
     1.0000   0.0933   0.0000   0.0000

          k = 0.0000-0.5000 0.2500 (   311 PWs)   bands (ev):

    -0.4592  11.6813  13.0740  16.5866

     occupation numbers 
     1.0000   0.0000   0.0000   0.0000

          k =-0.1250-0.3750 0.1250 (   308 PWs)   bands (ev):

    -1.7096  13.1258  16.6493  18.1733

     occupation numbers 
     1.0000   0.0000   0.0000   0.0000

          k =-0.2500-0.2500 0.2500 (   311 PWs)   bands (ev):

    -1.5701  11.2687  18.7018  18.7018

     occupation numbers 
     1.0000   0.0000   0.0000   0.0000

          k =-0.3750-0.1250 0.1250 (   308 PWs)   bands (ev):

    -1.7096  13.1258  16.6493  18.1733

     occupation numbers 
     1.0000   0.0000   0.0000   0.0000

          k =-0.5000 0.0000 0.0000 (   311 PWs)   bands (ev):

    -1.0136  15.3153  15.3266  15.3266

     occupation numbers 
     1.0000   0.0000   0.0000   0.0000

          k =-0.6250 0.1250-0.1250 (   316 PWs)   bands (ev):

     0.5049  11.0548  13.4053  14.7303

     occupation numbers 
     1.0000   0.0000   0.0000   0.0000

          k = 0.2500-0.7500 0.7500 (   311 PWs)   bands (ev):

     2.8155   7.0881  11.4830  14.8566

     occupation numbers 
     1.0000   1.0068   0.0000   0.0000

          k = 0.1250-0.6250 0.6250 (   307 PWs)   bands (ev):

     3.7613   5.8707  10.3622  15.7059

     occupation numbers 
     1.0000   1.0000   0.0000   0.0000

          k = 0.0000-0.5000 0.5000 (   315 PWs)   bands (ev):

     1.1914   9.0794  10.5765  17.2785

     occupation numbers 
     1.0000   0.0000   0.0000   0.0000

          k =-0.1250-0.3750 0.3750 (   309 PWs)   bands (ev):

    -0.5974  10.0697  14.4266  19.5556

     occupation numbers 
     1.0000   0.0000   0.0000   0.0000

          k =-0.1250-0.1250 0.3750 (   308 PWs)   bands (ev):

    -1.7096  13.1258  16.6493  18.1733

     occupation numbers 
     1.0000   0.0000   0.0000   0.0000

          k =-0.2500 0.0000 0.2500 (   317 PWs)   bands (ev):

    -2.1289  14.2719  15.5010  21.5185

     occupation numbers 
     1.0000   0.0000   0.0000   0.0000

          k =-0.3750 0.1250 0.1250 (   308 PWs)   bands (ev):

    -1.7096  13.1258  16.6493  18.1733

     occupation numbers 
     1.0000   0.0000   0.0000   0.0000

          k =-0.5000 0.2500 0.0000 (   311 PWs)   bands (ev):

    -0.4592  11.6813  13.0740  16.5866

     occupation numbers 
     1.0000   0.0000   0.0000   0.0000

          k = 0.3750-0.6250 0.8750 (   313 PWs)   bands (ev):

     1.6000   7.9760  12.4019  14.4547

     occupation numbers 
     1.0000   0.0933   0.0000   0.0000

          k = 0.2500-0.5000 0.7500 (   308 PWs)   bands (ev):

     4.3120   4.5595  12.8025  13.2583

     occupation numbers 
     1.0000   1.0000   0.0000   0.0000

          k = 0.1250-0.3750 0.6250 (   313 PWs)   bands (ev):

     1.6000   7.9760  12.4019  14.4547

     occupation numbers 
     1.0000   0.0933   0.0000   0.0000

          k = 0.0000-0.2500 0.5000 (   311 PWs)   bands (ev):

    -0.4592  11.6813  13.0740  16.5866

     occupation numbers 
     1.0000   0.0000   0.0000   0.0000

          k = 0.0000 0.0000 0.5000 (   311 PWs)   bands (ev):

    -1.0136  15.3153  15.3266  15.3266

     occupation numbers 
     1.0000   0.0000   0.0000   0.0000

          k =-0.1250 0.1250 0.3750 (   308 PWs)   bands (ev):

    -1.7096  13.1258  16.6493  18.1733

     occupation numbers 
     1.0000   0.0000   0.0000   0.0000

          k =-0.2500 0.2500 0.2500 (   311 PWs)   bands (ev):

    -1.5701  11.2687  18.7018  18.7018

     occupation numbers 
     1.0000   0.0000   0.0000   0.0000

          k =-0.3750 0.3750 0.1250 (   309 PWs)   bands (ev):

    -0.5974  10.0697  14.4266  19.5556

     occupation numbers 
     1.0000   0.0000   0.0000   0.0000

          k = 0.5000-0.5000 1.0000 (   315 PWs)   bands (ev):

     1.1914   9.0794  10.5765  17.2785

     occupation numbers 
     1.0000   0.0000   0.0000   0.0000

          k = 0.3750-0.3750 0.8750 (   307 PWs)   bands (ev):

     3.7613   5.8707  10.3622  15.7059

     occupation numbers 
     1.0000   1.0000   0.0000   0.0000

          k = 0.2500-0.2500 0.7500 (   311 PWs)   bands (ev):

     2.8155   7.0881  11.4830  14.8566

     occupation numbers 
     1.0000   1.0068   0.0000   0.0000

          k = 0.1250-0.1250 0.6250 (   316 PWs)   bands (ev):

     0.5049  11.0548  13.4053  14.7303

     occupation numbers 
     1.0000   0.0000   0.0000   0.0000

          k = 0.1250 0.1250 0.6250 (   316 PWs)   bands (ev):

     0.5049  11.0548  13.4053  14.7303

     occupation numbers 
     1.0000   0.0000   0.0000   0.0000

          k = 0.0000 0.2500 0.5000 (   311 PWs)   bands (ev):

    -0.4592  11.6813  13.0740  16.5866

     occupation numbers 
     1.0000   0.0000   0.0000   0.0000

          k =-0.1250 0.3750 0.3750 (   309 PWs)   bands (ev):

    -0.5974  10.0697  14.4266  19.5556

     occupation numbers 
     1.0000   0.0000   0.0000   0.0000

          k =-0.2500 0.5000 0.2500 (   317 PWs)   bands (ev):

     0.0932   8.6717  16.3021  17.0303

     occupation numbers 
     1.0000   0.0000   0.0000   0.0000

          k = 0.6250-0.3750 1.1250 (   313 PWs)   bands (ev):

     1.6000   7.9760  12.4019  14.4547

     occupation numbers 
     1.0000   0.0933   0.0000   0.0000

          k = 0.5000-0.2500 1.0000 (   311 PWs)   bands (ev):

     3.8916   7.5205   8.9825  12.5483

     occupation numbers 
     1.0000   1.0366   0.0000   0.0000

          k = 0.3750-0.1250 0.8750 (   308 PWs)   bands (ev):

     4.7903   6.9156   9.2918  11.4448

     occupation numbers 
     1.0000   1.0004   0.0000   0.0000

          k = 0.2500 0.0000 0.7500 (   309 PWs)   bands (ev):

     2.2742  10.1210  10.8323  11.7088

     occupation numbers 
     1.0000   0.0000   0.0000   0.0000

          k =-0.7500-0.7500-0.2500 (   311 PWs)   bands (ev):

     2.8155   7.0881  11.4830  14.8566

     occupation numbers 
     1.0000   1.0068   0.0000   0.0000

          k =-0.8750-0.6250-0.3750 (   313 PWs)   bands (ev):

     1.6000   7.9760  12.4019  14.4547

     occupation numbers 
     1.0000   0.0933   0.0000   0.0000

          k =-1.0000-0.5000-0.5000 (   315 PWs)   bands (ev):

     1.1914   9.0794  10.5765  17.2785

     occupation numbers 
     1.0000   0.0000   0.0000   0.0000

          k =-1.1250-0.3750-0.6250 (   313 PWs)   bands (ev):

     1.6000   7.9760  12.4019  14.4547

     occupation numbers 
     1.0000   0.0933   0.0000   0.0000

          k =-0.2500-1.2500 0.2500 (   311 PWs)   bands (ev):

     2.8155   7.0881  11.4830  14.8566

     occupation numbers 
     1.0000   1.0068   0.0000   0.0000

          k =-0.3750-1.1250 0.1250 (   308 PWs)   bands (ev):

     4.7903   6.9156   9.2918  11.4448

     occupation numbers 
     1.0000   1.0004   0.0000   0.0000

          k =-0.5000-1.0000 0.0000 (   308 PWs)   bands (ev):

     7.0015   7.0015   8.0199   8.9169

     occupation numbers 
     1.0019   1.0019   0.0575   0.0000

          k =-0.6250-0.8750-0.1250 (   308 PWs)   bands (ev):

     4.7903   6.9156   9.2918  11.4448

     occupation numbers 
     1.0000   1.0004   0.0000   0.0000

          k =-0.6250-0.6250-0.1250 (   307 PWs)   bands (ev):

     3.7613   5.8707  10.3622  15.7059

     occupation numbers 
     1.0000   1.0000   0.0000   0.0000

          k =-0.7500-0.5000-0.2500 (   308 PWs)   bands (ev):

     4.3120   4.5595  12.8025  13.2583

     occupation numbers 
     1.0000   1.0000   0.0000   0.0000

          k =-0.8750-0.3750-0.3750 (   307 PWs)   bands (ev):

     3.7613   5.8707  10.3622  15.7059

     occupation numbers 
     1.0000   1.0000   0.0000   0.0000

          k =-1.0000-0.2500-0.5000 (   311 PWs)   bands (ev):

     3.8916   7.5205   8.9825  12.5483

     occupation numbers 
     1.0000   1.0366   0.0000   0.0000

          k =-0.1250-1.1250 0.3750 (   308 PWs)   bands (ev):

     4.7903   6.9156   9.2918  11.4448

     occupation numbers 
     1.0000   1.0004   0.0000   0.0000

          k =-0.2500-1.0000 0.2500 (   308 PWs)   bands (ev):

     5.9648   6.4896   7.4341  14.3755

     occupation numbers 
     1.0000   1.0000   1.0823   0.0000

          k =-0.3750-0.8750 0.1250 (   308 PWs)   bands (ev):

     4.7903   6.9156   9.2918  11.4448

     occupation numbers 
     1.0000   1.0004   0.0000   0.0000

          k =-0.5000-0.7500 0.0000 (   311 PWs)   bands (ev):

     3.8916   7.5205   8.9825  12.5483

     occupation numbers 
     1.0000   1.0366   0.0000   0.0000

          k =-0.5000-0.5000 0.0000 (   315 PWs)   bands (ev):

     1.1914   9.0794  10.5765  17.2785

     occupation numbers 
     1.0000   0.0000   0.0000   0.0000

          k =-0.6250-0.3750-0.1250 (   313 PWs)   bands (ev):

     1.6000   7.9760  12.4019  14.4547

     occupation numbers 
     1.0000   0.0933   0.0000   0.0000

          k =-0.7500-0.2500-0.2500 (   311 PWs)   bands (ev):

     2.8155   7.0881  11.4830  14.8566

     occupation numbers 
     1.0000   1.0068   0.0000   0.0000

          k =-0.8750-0.1250-0.3750 (   308 PWs)   bands (ev):

     4.7903   6.9156   9.2918  11.4448

     occupation numbers 
     1.0000   1.0004   0.0000   0.0000

          k = 0.0000-1.0000 0.5000 (   308 PWs)   bands (ev):

     7.0015   7.0015   8.0199   8.9169

     occupation numbers 
     1.0019   1.0019   0.0575   0.0000

          k =-0.1250-0.8750 0.3750 (   308 PWs)   bands (ev):

     4.7903   6.9156   9.2918  11.4448

     occupation numbers 
     1.0000   1.0004   0.0000   0.0000

          k =-0.2500-0.7500 0.2500 (   311 PWs)   bands (ev):

     2.8155   7.0881  11.4830  14.8566

     occupation numbers 
     1.0000   1.0068   0.0000   0.0000

          k =-0.3750-0.6250 0.1250 (   313 PWs)   bands (ev):

     1.6000   7.9760  12.4019  14.4547

     occupation numbers 
     1.0000   0.0933   0.0000   0.0000

          k =-0.3750-0.3750 0.1250 (   309 PWs)   bands (ev):

    -0.5974  10.0697  14.4266  19.5556

     occupation numbers 
     1.0000   0.0000   0.0000   0.0000

          k =-0.5000-0.2500 0.0000 (   311 PWs)   bands (ev):

    -0.4592  11.6813  13.0740  16.5866

     occupation numbers 
     1.0000   0.0000   0.0000   0.0000

          k =-0.6250-0.1250-0.1250 (   316 PWs)   bands (ev):

     0.5049  11.0548  13.4053  14.7303

     occupation numbers 
     1.0000   0.0000   0.0000   0.0000

          k =-0.7500 0.0000-0.2500 (   309 PWs)   bands (ev):

     2.2742  10.1210  10.8323  11.7088

     occupation numbers 
     1.0000   0.0000   0.0000   0.0000

          k = 0.1250-0.8750 0.6250 (   308 PWs)   bands (ev):

     4.7903   6.9156   9.2918  11.4448

     occupation numbers 
     1.0000   1.0004   0.0000   0.0000

          k = 0.0000-0.7500 0.5000 (   311 PWs)   bands (ev):

     3.8916   7.5205   8.9825  12.5483

     occupation numbers 
     1.0000   1.0366   0.0000   0.0000

          k =-0.1250-0.6250 0.3750 (   313 PWs)   bands (ev):

     1.6000   7.9760  12.4019  14.4547

     occupation numbers 
     1.0000   0.0933   0.0000   0.0000

          k =-0.2500-0.5000 0.2500 (   317 PWs)   bands (ev):

     0.0932   8.6717  16.3021  17.0303

     occupation numbers 
     1.0000   0.0000   0.0000   0.0000

          k =-0.3750-0.3750 0.3750 (   308 PWs)   bands (ev):

     0.5064   6.9766  18.6101  18.6101

     occupation numbers 
     1.0000   1.0013   0.0000   0.0000

          k =-0.5000-0.2500 0.2500 (   317 PWs)   bands (ev):

     0.0932   8.6717  16.3021  17.0303

     occupation numbers 
     1.0000   0.0000   0.0000   0.0000

          k =-0.6250-0.1250 0.1250 (   316 PWs)   bands (ev):

     0.5049  11.0548  13.4053  14.7303

     occupation numbers 
     1.0000   0.0000   0.0000   0.0000

          k =-0.7500 0.0000 0.0000 (   322 PWs)   bands (ev):

     1.7308  10.4183  13.6576  13.8886

     occupation numbers 
     1.0000   0.0000   0.0000   0.0000

          k = 0.1250-0.8750 0.8750 (   314 PWs)   bands (ev):

     3.7269   8.2117  10.0447  13.7707

     occupation numbers 
     1.0000   0.0038   0.0000   0.0000

          k = 0.0000-0.7500 0.7500 (   308 PWs)   bands (ev):

     5.9648   6.4896   7.4341  14.3755

     occupation numbers 
     1.0000   1.0000   1.0823   0.0000

          k =-0.1250-0.6250 0.6250 (   307 PWs)   bands (ev):

     3.7613   5.8707  10.3622  15.7059

     occupation numbers 
     1.0000   1.0000   0.0000   0.0000

          k =-0.2500-0.5000 0.5000 (   308 PWs)   bands (ev):

     1.7376   6.0426  14.5263  17.7646

     occupation numbers 
     1.0000   1.0000   0.0000   0.0000

          k =-0.2500-0.2500 0.5000 (   317 PWs)   bands (ev):

     0.0932   8.6717  16.3021  17.0303

     occupation numbers 
     1.0000   0.0000   0.0000   0.0000

          k =-0.3750-0.1250 0.3750 (   309 PWs)   bands (ev):

    -0.5974  10.0697  14.4266  19.5556

     occupation numbers 
     1.0000   0.0000   0.0000   0.0000

          k =-0.5000 0.0000 0.2500 (   311 PWs)   bands (ev):

    -0.4592  11.6813  13.0740  16.5866

     occupation numbers 
     1.0000   0.0000   0.0000   0.0000

          k =-0.6250 0.1250 0.1250 (   316 PWs)   bands (ev):

     0.5049  11.0548  13.4053  14.7303

     occupation numbers 
     1.0000   0.0000   0.0000   0.0000

          k = 0.2500-0.7500 1.0000 (   309 PWs)   bands (ev):

     2.2742  10.1210  10.8323  11.7088

     occupation numbers 
     1.0000   0.0000   0.0000   0.0000

          k = 0.1250-0.6250 0.8750 (   308 PWs)   bands (ev):

     4.7903   6.9156   9.2918  11.4448

     occupation numbers 
     1.0000   1.0004   0.0000   0.0000

          k = 0.0000-0.5000 0.7500 (   311 PWs)   bands (ev):

     3.8916   7.5205   8.9825  12.5483

     occupation numbers 
     1.0000   1.0366   0.0000   0.0000

          k =-0.1250-0.3750 0.6250 (   313 PWs)   bands (ev):

     1.6000   7.9760  12.4019  14.4547

     occupation numbers 
     1.0000   0.0933   0.0000   0.0000

          k =-0.1250-0.1250 0.6250 (   316 PWs)   bands (ev):

     0.5049  11.0548  13.4053  14.7303

     occupation numbers 
     1.0000   0.0000   0.0000   0.0000

          k =-0.2500 0.0000 0.5000 (   311 PWs)   bands (ev):

    -0.4592  11.6813  13.0740  16.5866

     occupation numbers 
     1.0000   0.0000   0.0000   0.0000

          k =-0.3750 0.1250 0.3750 (   309 PWs)   bands (ev):

    -0.5974  10.0697  14.4266  19.5556

     occupation numbers 
     1.0000   0.0000   0.0000   0.0000

          k =-0.5000 0.2500 0.2500 (   317 PWs)   bands (ev):

     0.0932   8.6717  16.3021  17.0303

     occupation numbers 
     1.0000   0.0000   0.0000   0.0000

          k = 0.3750-0.6250 1.1250 (   313 PWs)   bands (ev):

     1.6000   7.9760  12.4019  14.4547

     occupation numbers 
     1.0000   0.0933   0.0000   0.0000

          k = 0.2500-0.5000 1.0000 (   311 PWs)   bands (ev):

     3.8916   7.5205   8.9825  12.5483

     occupation numbers 
     1.0000   1.0366   0.0000   0.0000

          k = 0.1250-0.3750 0.8750 (   308 PWs)   bands (ev):

     4.7903   6.9156   9.2918  11.4448

     occupation numbers 
     1.0000   1.0004   0.0000   0.0000

          k = 0.0000-0.2500 0.7500 (   309 PWs)   bands (ev):

     2.2742  10.1210  10.8323  11.7088

     occupation numbers 
     1.0000   0.0000   0.0000   0.0000

          k = 0.0000 0.0000 0.7500 (   322 PWs)   bands (ev):

     1.7308  10.4183  13.6576  13.8886

     occupation numbers 
     1.0000   0.0000   0.0000   0.0000

          k =-0.1250 0.1250 0.6250 (   316 PWs)   bands (ev):

     0.5049  11.0548  13.4053  14.7303

     occupation numbers 
     1.0000   0.0000   0.0000   0.0000

          k =-0.2500 0.2500 0.5000 (   317 PWs)   bands (ev):

     0.0932   8.6717  16.3021  17.0303

     occupation numbers 
     1.0000   0.0000   0.0000   0.0000

          k =-0.3750 0.3750 0.3750 (   308 PWs)   bands (ev):

     0.5064   6.9766  18.6101  18.6101

     occupation numbers 
     1.0000   1.0013   0.0000   0.0000

          k = 0.5000-0.5000 1.2500 (   308 PWs)   bands (ev):

     1.7376   6.0426  14.5263  17.7646

     occupation numbers 
     1.0000   1.0000   0.0000   0.0000

          k = 0.3750-0.3750 1.1250 (   307 PWs)   bands (ev):

     3.7613   5.8707  10.3622  15.7059

     occupation numbers 
     1.0000   1.0000   0.0000   0.0000

          k = 0.2500-0.2500 1.0000 (   308 PWs)   bands (ev):

     5.9648   6.4896   7.4341  14.3755

     occupation numbers 
     1.0000   1.0000   1.0823   0.0000

          k = 0.1250-0.1250 0.8750 (   314 PWs)   bands (ev):

     3.7269   8.2117  10.0447  13.7707

     occupation numbers 
     1.0000   0.0038   0.0000   0.0000

          k =-0.8750-0.8750-0.1250 (   314 PWs)   bands (ev):

     3.7269   8.2117  10.0447  13.7707

     occupation numbers 
     1.0000   0.0038   0.0000   0.0000

          k =-1.0000-0.7500-0.2500 (   309 PWs)   bands (ev):

     2.2742  10.1210  10.8323  11.7088

     occupation numbers 
     1.0000   0.0000   0.0000   0.0000

          k =-1.1250-0.6250-0.3750 (   313 PWs)   bands (ev):

     1.6000   7.9760  12.4019  14.4547

     occupation numbers 
     1.0000   0.0933   0.0000   0.0000

          k =-1.2500-0.5000-0.5000 (   308 PWs)   bands (ev):

     1.7376   6.0426  14.5263  17.7646

     occupation numbers 
     1.0000   1.0000   0.0000   0.0000

          k =-0.3750-1.3750 0.3750 (   312 PWs)   bands (ev):

     2.6858   4.8512  15.4059  16.6736

     occupation numbers 
     1.0000   1.0000   0.0000   0.0000

          k =-0.5000-1.2500 0.2500 (   308 PWs)   bands (ev):

     4.3120   4.5595  12.8025  13.2583

     occupation numbers 
     1.0000   1.0000   0.0000   0.0000

          k =-0.6250-1.1250 0.1250 (   308 PWs)   bands (ev):

     4.7903   6.9156   9.2918  11.4448

     occupation numbers 
     1.0000   1.0004   0.0000   0.0000

          k =-0.7500-1.0000 0.0000 (   308 PWs)   bands (ev):

     5.4472   6.7821   9.6005  11.0981

     occupation numbers 
     1.0000   1.0000   0.0000   0.0000

          k =-0.7500-0.7500 0.0000 (   308 PWs)   bands (ev):

     5.9648   6.4896   7.4341  14.3755

     occupation numbers 
     1.0000   1.0000   1.0823   0.0000

          k =-0.8750-0.6250-0.1250 (   308 PWs)   bands (ev):

     4.7903   6.9156   9.2918  11.4448

     occupation numbers 
     1.0000   1.0004   0.0000   0.0000

          k =-1.0000-0.5000-0.2500 (   311 PWs)   bands (ev):

     3.8916   7.5205   8.9825  12.5483

     occupation numbers 
     1.0000   1.0366   0.0000   0.0000

          k =-1.1250-0.3750-0.3750 (   307 PWs)   bands (ev):

     3.7613   5.8707  10.3622  15.7059

     occupation numbers 
     1.0000   1.0000   0.0000   0.0000

          k =-0.2500-1.2500 0.5000 (   308 PWs)   bands (ev):

     4.3120   4.5595  12.8025  13.2583

     occupation numbers 
     1.0000   1.0000   0.0000   0.0000

          k =-0.3750-1.1250 0.3750 (   307 PWs)   bands (ev):

     3.7613   5.8707  10.3622  15.7059

     occupation numbers 
     1.0000   1.0000   0.0000   0.0000

          k =-0.5000-1.0000 0.2500 (   311 PWs)   bands (ev):

     3.8916   7.5205   8.9825  12.5483

     occupation numbers 
     1.0000   1.0366   0.0000   0.0000

          k =-0.6250-0.8750 0.1250 (   308 PWs)   bands (ev):

     4.7903   6.9156   9.2918  11.4448

     occupation numbers 
     1.0000   1.0004   0.0000   0.0000

          k =-0.6250-0.6250 0.1250 (   307 PWs)   bands (ev):

     3.7613   5.8707  10.3622  15.7059

     occupation numbers 
     1.0000   1.0000   0.0000   0.0000

          k =-0.7500-0.5000 0.0000 (   311 PWs)   bands (ev):

     3.8916   7.5205   8.9825  12.5483

     occupation numbers 
     1.0000   1.0366   0.0000   0.0000

          k =-0.8750-0.3750-0.1250 (   308 PWs)   bands (ev):

     4.7903   6.9156   9.2918  11.4448

     occupation numbers 
     1.0000   1.0004   0.0000   0.0000

          k =-1.0000-0.2500-0.2500 (   308 PWs)   bands (ev):

     5.9648   6.4896   7.4341  14.3755

     occupation numbers 
     1.0000   1.0000   1.0823   0.0000

          k =-0.1250-1.1250 0.6250 (   308 PWs)   bands (ev):

     4.7903   6.9156   9.2918  11.4448

     occupation numbers 
     1.0000   1.0004   0.0000   0.0000

          k =-0.2500-1.0000 0.5000 (   311 PWs)   bands (ev):

     3.8916   7.5205   8.9825  12.5483

     occupation numbers 
     1.0000   1.0366   0.0000   0.0000

          k =-0.3750-0.8750 0.3750 (   307 PWs)   bands (ev):

     3.7613   5.8707  10.3622  15.7059

     occupation numbers 
     1.0000   1.0000   0.0000   0.0000

          k =-0.5000-0.7500 0.2500 (   308 PWs)   bands (ev):

     4.3120   4.5595  12.8025  13.2583

     occupation numbers 
     1.0000   1.0000   0.0000   0.0000

          k =-0.5000-0.5000 0.2500 (   308 PWs)   bands (ev):

     1.7376   6.0426  14.5263  17.7646

     occupation numbers 
     1.0000   1.0000   0.0000   0.0000

          k =-0.6250-0.3750 0.1250 (   313 PWs)   bands (ev):

     1.6000   7.9760  12.4019  14.4547

     occupation numbers 
     1.0000   0.0933   0.0000   0.0000

          k =-0.7500-0.2500 0.0000 (   309 PWs)   bands (ev):

     2.2742  10.1210  10.8323  11.7088

     occupation numbers 
     1.0000   0.0000   0.0000   0.0000

          k =-0.8750-0.1250-0.1250 (   314 PWs)   bands (ev):

     3.7269   8.2117  10.0447  13.7707

     occupation numbers 
     1.0000   0.0038   0.0000   0.0000

          k = 0.0000-1.0000 0.7500 (   308 PWs)   bands (ev):

     5.4472   6.7821   9.6005  11.0981

     occupation numbers 
     1.0000   1.0000   0.0000   0.0000

          k =-0.1250-0.8750 0.6250 (   308 PWs)   bands (ev):

     4.7903   6.9156   9.2918  11.4448

     occupation numbers 
     1.0000   1.0004   0.0000   0.0000

          k =-0.2500-0.7500 0.5000 (   308 PWs)   bands (ev):

     4.3120   4.5595  12.8025  13.2583

     occupation numbers 
     1.0000   1.0000   0.0000   0.0000

          k =-0.3750-0.6250 0.3750 (   312 PWs)   bands (ev):

     2.6858   4.8512  15.4059  16.6736

     occupation numbers 
     1.0000   1.0000   0.0000   0.0000

          k = 0.5000 0.5000-0.5000 (   302 PWs)   bands (ev):

     3.2691   3.4705  19.1836  19.1836

     occupation numbers 
     1.0000   1.0000   0.0000   0.0000

          k = 0.3750 0.6250-0.6250 (   312 PWs)   bands (ev):

     2.6858   4.8512  15.4059  16.6736

     occupation numbers 
     1.0000   1.0000   0.0000   0.0000

          k = 0.2500 0.7500-0.7500 (   311 PWs)   bands (ev):

     2.8155   7.0881  11.4830  14.8566

     occupation numbers 
     1.0000   1.0068   0.0000   0.0000

          k = 0.1250 0.8750-0.8750 (   314 PWs)   bands (ev):

     3.7269   8.2117  10.0447  13.7707

     occupation numbers 
     1.0000   0.0038   0.0000   0.0000

          k = 1.0000 0.0000 0.0000 (   302 PWs)   bands (ev):

     4.9302   6.2414  13.1005  13.4097

     occupation numbers 
     1.0000   1.0000   0.0000   0.0000

          k = 0.8750 0.1250-0.1250 (   314 PWs)   bands (ev):

     3.7269   8.2117  10.0447  13.7707

     occupation numbers 
     1.0000   0.0038   0.0000   0.0000

          k = 0.7500 0.2500-0.2500 (   311 PWs)   bands (ev):

     2.8155   7.0881  11.4830  14.8566

     occupation numbers 
     1.0000   1.0068   0.0000   0.0000

          k = 0.6250 0.3750-0.3750 (   312 PWs)   bands (ev):

     2.6858   4.8512  15.4059  16.6736

     occupation numbers 
     1.0000   1.0000   0.0000   0.0000

          k = 0.6250 0.6250-0.3750 (   312 PWs)   bands (ev):

     2.6858   4.8512  15.4059  16.6736

     occupation numbers 
     1.0000   1.0000   0.0000   0.0000

          k = 0.5000 0.7500-0.5000 (   308 PWs)   bands (ev):

     1.7376   6.0426  14.5263  17.7646

     occupation numbers 
     1.0000   1.0000   0.0000   0.0000

          k = 0.3750 0.8750-0.6250 (   313 PWs)   bands (ev):

     1.6000   7.9760  12.4019  14.4547

     occupation numbers 
     1.0000   0.0933   0.0000   0.0000

          k = 0.2500 1.0000-0.7500 (   309 PWs)   bands (ev):

     2.2742  10.1210  10.8323  11.7088

     occupation numbers 
     1.0000   0.0000   0.0000   0.0000

          k = 1.1250 0.1250 0.1250 (   314 PWs)   bands (ev):

     3.7269   8.2117  10.0447  13.7707

     occupation numbers 
     1.0000   0.0038   0.0000   0.0000

          k = 1.0000 0.2500 0.0000 (   308 PWs)   bands (ev):

     5.4472   6.7821   9.6005  11.0981

     occupation numbers 
     1.0000   1.0000   0.0000   0.0000

          k = 0.8750 0.3750-0.1250 (   308 PWs)   bands (ev):

     4.7903   6.9156   9.2918  11.4448

     occupation numbers 
     1.0000   1.0004   0.0000   0.0000

          k = 0.7500 0.5000-0.2500 (   308 PWs)   bands (ev):

     4.3120   4.5595  12.8025  13.2583

     occupation numbers 
     1.0000   1.0000   0.0000   0.0000

          k = 0.7500 0.7500-0.2500 (   311 PWs)   bands (ev):

     2.8155   7.0881  11.4830  14.8566

     occupation numbers 
     1.0000   1.0068   0.0000   0.0000

          k = 0.6250 0.8750-0.3750 (   313 PWs)   bands (ev):

     1.6000   7.9760  12.4019  14.4547

     occupation numbers 
     1.0000   0.0933   0.0000   0.0000

          k = 0.5000 1.0000-0.5000 (   315 PWs)   bands (ev):

     1.1914   9.0794  10.5765  17.2785

     occupation numbers 
     1.0000   0.0000   0.0000   0.0000

          k = 0.3750 1.1250-0.6250 (   313 PWs)   bands (ev):

     1.6000   7.9760  12.4019  14.4547

     occupation numbers 
     1.0000   0.0933   0.0000   0.0000

          k = 1.2500 0.2500 0.2500 (   311 PWs)   bands (ev):

     2.8155   7.0881  11.4830  14.8566

     occupation numbers 
     1.0000   1.0068   0.0000   0.0000

          k = 1.1250 0.3750 0.1250 (   308 PWs)   bands (ev):

     4.7903   6.9156   9.2918  11.4448

     occupation numbers 
     1.0000   1.0004   0.0000   0.0000

          k = 1.0000 0.5000 0.0000 (   308 PWs)   bands (ev):

     7.0015   7.0015   8.0199   8.9169

     occupation numbers 
     1.0019   1.0019   0.0575   0.0000

          k = 0.8750 0.6250-0.1250 (   308 PWs)   bands (ev):

     4.7903   6.9156   9.2918  11.4448

     occupation numbers 
     1.0000   1.0004   0.0000   0.0000

          k = 0.8750 0.8750-0.1250 (   314 PWs)   bands (ev):

     3.7269   8.2117  10.0447  13.7707

     occupation numbers 
     1.0000   0.0038   0.0000   0.0000

          k = 0.7500 1.0000-0.2500 (   309 PWs)   bands (ev):

     2.2742  10.1210  10.8323  11.7088

     occupation numbers 
     1.0000   0.0000   0.0000   0.0000

          k = 0.6250 1.1250-0.3750 (   313 PWs)   bands (ev):

     1.6000   7.9760  12.4019  14.4547

     occupation numbers 
     1.0000   0.0933   0.0000   0.0000

          k = 0.5000 1.2500-0.5000 (   308 PWs)   bands (ev):

     1.7376   6.0426  14.5263  17.7646

     occupation numbers 
     1.0000   1.0000   0.0000   0.0000

          k = 1.3750 0.3750 0.3750 (   312 PWs)   bands (ev):

     2.6858   4.8512  15.4059  16.6736

     occupation numbers 
     1.0000   1.0000   0.0000   0.0000

          k = 1.2500 0.5000 0.2500 (   308 PWs)   bands (ev):

     4.3120   4.5595  12.8025  13.2583

     occupation numbers 
     1.0000   1.0000   0.0000   0.0000

          k = 1.1250 0.6250 0.1250 (   308 PWs)   bands (ev):

     4.7903   6.9156   9.2918  11.4448

     occupation numbers 
     1.0000   1.0004   0.0000   0.0000

          k = 1.0000 0.7500 0.0000 (   308 PWs)   bands (ev):

     5.4472   6.7821   9.6005  11.0981

     occupation numbers 
     1.0000   1.0000   0.0000   0.0000

          k = 0.0000 0.0000-1.0000 (   302 PWs)   bands (ev):

     4.9302   6.2414  13.1005  13.4097

     occupation numbers 
     1.0000   1.0000   0.0000   0.0000

          k =-0.1250 0.1250-1.1250 (   314 PWs)   bands (ev):

     3.7269   8.2117  10.0447  13.7707

     occupation numbers 
     1.0000   0.0038   0.0000   0.0000

          k =-0.2500 0.2500-1.2500 (   311 PWs)   bands (ev):

     2.8155   7.0881  11.4830  14.8566

     occupation numbers 
     1.0000   1.0068   0.0000   0.0000

          k =-0.3750 0.3750-1.3750 (   312 PWs)   bands (ev):

     2.6858   4.8512  15.4059  16.6736

     occupation numbers 
     1.0000   1.0000   0.0000   0.0000

          k = 0.5000-0.5000-0.5000 (   302 PWs)   bands (ev):

     3.2691   3.4705  19.1836  19.1836

     occupation numbers 
     1.0000   1.0000   0.0000   0.0000

          k = 0.3750-0.3750-0.6250 (   312 PWs)   bands (ev):

     2.6858   4.8512  15.4059  16.6736

     occupation numbers 
     1.0000   1.0000   0.0000   0.0000

          k = 0.2500-0.2500-0.7500 (   311 PWs)   bands (ev):

     2.8155   7.0881  11.4830  14.8566

     occupation numbers 
     1.0000   1.0068   0.0000   0.0000

          k = 0.1250-0.1250-0.8750 (   314 PWs)   bands (ev):

     3.7269   8.2117  10.0447  13.7707

     occupation numbers 
     1.0000   0.0038   0.0000   0.0000

          k = 0.1250 0.1250-0.8750 (   314 PWs)   bands (ev):

     3.7269   8.2117  10.0447  13.7707

     occupation numbers 
     1.0000   0.0038   0.0000   0.0000

          k = 0.0000 0.2500-1.0000 (   308 PWs)   bands (ev):

     5.4472   6.7821   9.6005  11.0981

     occupation numbers 
     1.0000   1.0000   0.0000   0.0000

          k =-0.1250 0.3750-1.1250 (   308 PWs)   bands (ev):

     4.7903   6.9156   9.2918  11.4448

     occupation numbers 
     1.0000   1.0004   0.0000   0.0000

          k =-0.2500 0.5000-1.2500 (   308 PWs)   bands (ev):

     4.3120   4.5595  12.8025  13.2583

     occupation numbers 
     1.0000   1.0000   0.0000   0.0000

          k = 0.6250-0.3750-0.3750 (   312 PWs)   bands (ev):

     2.6858   4.8512  15.4059  16.6736

     occupation numbers 
     1.0000   1.0000   0.0000   0.0000

          k = 0.5000-0.2500-0.5000 (   308 PWs)   bands (ev):

     1.7376   6.0426  14.5263  17.7646

     occupation numbers 
     1.0000   1.0000   0.0000   0.0000

          k = 0.3750-0.1250-0.6250 (   313 PWs)   bands (ev):

     1.6000   7.9760  12.4019  14.4547

     occupation numbers 
     1.0000   0.0933   0.0000   0.0000

          k = 0.2500 0.0000-0.7500 (   309 PWs)   bands (ev):

     2.2742  10.1210  10.8323  11.7088

     occupation numbers 
     1.0000   0.0000   0.0000   0.0000

          k = 0.2500 0.2500-0.7500 (   311 PWs)   bands (ev):

     2.8155   7.0881  11.4830  14.8566

     occupation numbers 
     1.0000   1.0068   0.0000   0.0000

          k = 0.1250 0.3750-0.8750 (   308 PWs)   bands (ev):

     4.7903   6.9156   9.2918  11.4448

     occupation numbers 
     1.0000   1.0004   0.0000   0.0000

          k = 0.0000 0.5000-1.0000 (   308 PWs)   bands (ev):

     7.0015   7.0015   8.0199   8.9169

     occupation numbers 
     1.0019   1.0019   0.0575   0.0000

          k =-0.1250 0.6250-1.1250 (   308 PWs)   bands (ev):

     4.7903   6.9156   9.2918  11.4448

     occupation numbers 
     1.0000   1.0004   0.0000   0.0000

          k = 0.7500-0.2500-0.2500 (   311 PWs)   bands (ev):

     2.8155   7.0881  11.4830  14.8566

     occupation numbers 
     1.0000   1.0068   0.0000   0.0000

          k = 0.6250-0.1250-0.3750 (   313 PWs)   bands (ev):

     1.6000   7.9760  12.4019  14.4547

     occupation numbers 
     1.0000   0.0933   0.0000   0.0000

          k = 0.5000 0.0000-0.5000 (   315 PWs)   bands (ev):

     1.1914   9.0794  10.5765  17.2785

     occupation numbers 
     1.0000   0.0000   0.0000   0.0000

          k = 0.3750 0.1250-0.6250 (   313 PWs)   bands (ev):

     1.6000   7.9760  12.4019  14.4547

     occupation numbers 
     1.0000   0.0933   0.0000   0.0000

          k = 0.3750 0.3750-0.6250 (   312 PWs)   bands (ev):

     2.6858   4.8512  15.4059  16.6736

     occupation numbers 
     1.0000   1.0000   0.0000   0.0000

          k = 0.2500 0.5000-0.7500 (   308 PWs)   bands (ev):

     4.3120   4.5595  12.8025  13.2583

     occupation numbers 
     1.0000   1.0000   0.0000   0.0000

          k = 0.1250 0.6250-0.8750 (   308 PWs)   bands (ev):

     4.7903   6.9156   9.2918  11.4448

     occupation numbers 
     1.0000   1.0004   0.0000   0.0000

          k = 0.0000 0.7500-1.0000 (   308 PWs)   bands (ev):

     5.4472   6.7821   9.6005  11.0981

     occupation numbers 
     1.0000   1.0000   0.0000   0.0000

          k = 0.8750-0.1250-0.1250 (   314 PWs)   bands (ev):

     3.7269   8.2117  10.0447  13.7707

     occupation numbers 
     1.0000   0.0038   0.0000   0.0000

          k = 0.7500 0.0000-0.2500 (   309 PWs)   bands (ev):

     2.2742  10.1210  10.8323  11.7088

     occupation numbers 
     1.0000   0.0000   0.0000   0.0000

          k = 0.6250 0.1250-0.3750 (   313 PWs)   bands (ev):

     1.6000   7.9760  12.4019  14.4547

     occupation numbers 
     1.0000   0.0933   0.0000   0.0000

          k = 0.5000 0.2500-0.5000 (   308 PWs)   bands (ev):

     1.7376   6.0426  14.5263  17.7646

     occupation numbers 
     1.0000   1.0000   0.0000   0.0000

          k = 0.3750 0.3750-0.3750 (   308 PWs)   bands (ev):

     0.5064   6.9766  18.6101  18.6101

     occupation numbers 
     1.0000   1.0013   0.0000   0.0000

          k = 0.2500 0.5000-0.5000 (   308 PWs)   bands (ev):

     1.7376   6.0426  14.5263  17.7646

     occupation numbers 
     1.0000   1.0000   0.0000   0.0000

          k = 0.1250 0.6250-0.6250 (   307 PWs)   bands (ev):

     3.7613   5.8707  10.3622  15.7059

     occupation numbers 
     1.0000   1.0000   0.0000   0.0000

          k = 0.0000 0.7500-0.7500 (   308 PWs)   bands (ev):

     5.9648   6.4896   7.4341  14.3755

     occupation numbers 
     1.0000   1.0000   1.0823   0.0000

          k = 0.8750-0.1250 0.1250 (   314 PWs)   bands (ev):

     3.7269   8.2117  10.0447  13.7707

     occupation numbers 
     1.0000   0.0038   0.0000   0.0000

          k = 0.7500 0.0000 0.0000 (   322 PWs)   bands (ev):

     1.7308  10.4183  13.6576  13.8886

     occupation numbers 
     1.0000   0.0000   0.0000   0.0000

          k = 0.6250 0.1250-0.1250 (   316 PWs)   bands (ev):

     0.5049  11.0548  13.4053  14.7303

     occupation numbers 
     1.0000   0.0000   0.0000   0.0000

          k = 0.5000 0.2500-0.2500 (   317 PWs)   bands (ev):

     0.0932   8.6717  16.3021  17.0303

     occupation numbers 
     1.0000   0.0000   0.0000   0.0000

          k = 0.5000 0.5000-0.2500 (   308 PWs)   bands (ev):

     1.7376   6.0426  14.5263  17.7646

     occupation numbers 
     1.0000   1.0000   0.0000   0.0000

          k = 0.3750 0.6250-0.3750 (   312 PWs)   bands (ev):

     2.6858   4.8512  15.4059  16.6736

     occupation numbers 
     1.0000   1.0000   0.0000   0.0000

          k = 0.2500 0.7500-0.5000 (   308 PWs)   bands (ev):

     4.3120   4.5595  12.8025  13.2583

     occupation numbers 
     1.0000   1.0000   0.0000   0.0000

          k = 0.1250 0.8750-0.6250 (   308 PWs)   bands (ev):

     4.7903   6.9156   9.2918  11.4448

     occupation numbers 
     1.0000   1.0004   0.0000   0.0000

          k = 1.0000 0.0000 0.2500 (   308 PWs)   bands (ev):

     5.4472   6.7821   9.6005  11.0981

     occupation numbers 
     1.0000   1.0000   0.0000   0.0000

          k = 0.8750 0.1250 0.1250 (   314 PWs)   bands (ev):

     3.7269   8.2117  10.0447  13.7707

     occupation numbers 
     1.0000   0.0038   0.0000   0.0000

          k = 0.7500 0.2500 0.0000 (   309 PWs)   bands (ev):

     2.2742  10.1210  10.8323  11.7088

     occupation numbers 
     1.0000   0.0000   0.0000   0.0000

          k = 0.6250 0.3750-0.1250 (   313 PWs)   bands (ev):

     1.6000   7.9760  12.4019  14.4547

     occupation numbers 
     1.0000   0.0933   0.0000   0.0000

          k = 0.6250 0.6250-0.1250 (   307 PWs)   bands (ev):

     3.7613   5.8707  10.3622  15.7059

     occupation numbers 
     1.0000   1.0000   0.0000   0.0000

          k = 0.5000 0.7500-0.2500 (   308 PWs)   bands (ev):

     4.3120   4.5595  12.8025  13.2583

     occupation numbers 
     1.0000   1.0000   0.0000   0.0000

          k = 0.3750 0.8750-0.3750 (   307 PWs)   bands (ev):

     3.7613   5.8707  10.3622  15.7059

     occupation numbers 
     1.0000   1.0000   0.0000   0.0000

          k = 0.2500 1.0000-0.5000 (   311 PWs)   bands (ev):

     3.8916   7.5205   8.9825  12.5483

     occupation numbers 
     1.0000   1.0366   0.0000   0.0000

          k = 1.1250 0.1250 0.3750 (   308 PWs)   bands (ev):

     4.7903   6.9156   9.2918  11.4448

     occupation numbers 
     1.0000   1.0004   0.0000   0.0000

          k = 1.0000 0.2500 0.2500 (   308 PWs)   bands (ev):

     5.9648   6.4896   7.4341  14.3755

     occupation numbers 
     1.0000   1.0000   1.0823   0.0000

          k = 0.8750 0.3750 0.1250 (   308 PWs)   bands (ev):

     4.7903   6.9156   9.2918  11.4448

     occupation numbers 
     1.0000   1.0004   0.0000   0.0000

          k = 0.7500 0.5000 0.0000 (   311 PWs)   bands (ev):

     3.8916   7.5205   8.9825  12.5483

     occupation numbers 
     1.0000   1.0366   0.0000   0.0000

          k = 0.7500 0.7500 0.0000 (   308 PWs)   bands (ev):

     5.9648   6.4896   7.4341  14.3755

     occupation numbers 
     1.0000   1.0000   1.0823   0.0000

          k = 0.6250 0.8750-0.1250 (   308 PWs)   bands (ev):

     4.7903   6.9156   9.2918  11.4448

     occupation numbers 
     1.0000   1.0004   0.0000   0.0000

          k = 0.5000 1.0000-0.2500 (   311 PWs)   bands (ev):

     3.8916   7.5205   8.9825  12.5483

     occupation numbers 
     1.0000   1.0366   0.0000   0.0000

          k = 0.3750 1.1250-0.3750 (   307 PWs)   bands (ev):

     3.7613   5.8707  10.3622  15.7059

     occupation numbers 
     1.0000   1.0000   0.0000   0.0000

          k = 1.2500 0.2500 0.5000 (   308 PWs)   bands (ev):

     4.3120   4.5595  12.8025  13.2583

     occupation numbers 
     1.0000   1.0000   0.0000   0.0000

          k = 1.1250 0.3750 0.3750 (   307 PWs)   bands (ev):

     3.7613   5.8707  10.3622  15.7059

     occupation numbers 
     1.0000   1.0000   0.0000   0.0000

          k = 1.0000 0.5000 0.2500 (   311 PWs)   bands (ev):

     3.8916   7.5205   8.9825  12.5483

     occupation numbers 
     1.0000   1.0366   0.0000   0.0000

          k = 0.8750 0.6250 0.1250 (   308 PWs)   bands (ev):

     4.7903   6.9156   9.2918  11.4448

     occupation numbers 
     1.0000   1.0004   0.0000   0.0000

          k =-0.1250-0.1250-0.8750 (   314 PWs)   bands (ev):

     3.7269   8.2117  10.0447  13.7707

     occupation numbers 
     1.0000   0.0038   0.0000   0.0000

          k =-0.2500 0.0000-1.0000 (   308 PWs)   bands (ev):

     5.4472   6.7821   9.6005  11.0981

     occupation numbers 
     1.0000   1.0000   0.0000   0.0000

          k =-0.3750 0.1250-1.1250 (   308 PWs)   bands (ev):

     4.7903   6.9156   9.2918  11.4448

     occupation numbers 
     1.0000   1.0004   0.0000   0.0000

          k =-0.5000 0.2500-1.2500 (   308 PWs)   bands (ev):

     4.3120   4.5595  12.8025  13.2583

     occupation numbers 
     1.0000   1.0000   0.0000   0.0000

          k = 0.3750-0.6250-0.3750 (   312 PWs)   bands (ev):

     2.6858   4.8512  15.4059  16.6736

     occupation numbers 
     1.0000   1.0000   0.0000   0.0000

          k = 0.2500-0.5000-0.5000 (   308 PWs)   bands (ev):

     1.7376   6.0426  14.5263  17.7646

     occupation numbers 
     1.0000   1.0000   0.0000   0.0000

          k = 0.1250-0.3750-0.6250 (   313 PWs)   bands (ev):

     1.6000   7.9760  12.4019  14.4547

     occupation numbers 
     1.0000   0.0933   0.0000   0.0000

          k = 0.0000-0.2500-0.7500 (   309 PWs)   bands (ev):

     2.2742  10.1210  10.8323  11.7088

     occupation numbers 
     1.0000   0.0000   0.0000   0.0000

          k = 0.0000 0.0000-0.7500 (   322 PWs)   bands (ev):

     1.7308  10.4183  13.6576  13.8886

     occupation numbers 
     1.0000   0.0000   0.0000   0.0000

          k =-0.1250 0.1250-0.8750 (   314 PWs)   bands (ev):

     3.7269   8.2117  10.0447  13.7707

     occupation numbers 
     1.0000   0.0038   0.0000   0.0000

          k =-0.2500 0.2500-1.0000 (   308 PWs)   bands (ev):

     5.9648   6.4896   7.4341  14.3755

     occupation numbers 
     1.0000   1.0000   1.0823   0.0000

          k =-0.3750 0.3750-1.1250 (   307 PWs)   bands (ev):

     3.7613   5.8707  10.3622  15.7059

     occupation numbers 
     1.0000   1.0000   0.0000   0.0000

          k = 0.5000-0.5000-0.2500 (   308 PWs)   bands (ev):

     1.7376   6.0426  14.5263  17.7646

     occupation numbers 
     1.0000   1.0000   0.0000   0.0000

          k = 0.3750-0.3750-0.3750 (   308 PWs)   bands (ev):

     0.5064   6.9766  18.6101  18.6101

     occupation numbers 
     1.0000   1.0013   0.0000   0.0000

          k = 0.2500-0.2500-0.5000 (   317 PWs)   bands (ev):

     0.0932   8.6717  16.3021  17.0303

     occupation numbers 
     1.0000   0.0000   0.0000   0.0000

          k = 0.1250-0.1250-0.6250 (   316 PWs)   bands (ev):

     0.5049  11.0548  13.4053  14.7303

     occupation numbers 
     1.0000   0.0000   0.0000   0.0000

          k = 0.1250 0.1250-0.6250 (   316 PWs)   bands (ev):

     0.5049  11.0548  13.4053  14.7303

     occupation numbers 
     1.0000   0.0000   0.0000   0.0000

          k = 0.0000 0.2500-0.7500 (   309 PWs)   bands (ev):

     2.2742  10.1210  10.8323  11.7088

     occupation numbers 
     1.0000   0.0000   0.0000   0.0000

          k =-0.1250 0.3750-0.8750 (   308 PWs)   bands (ev):

     4.7903   6.9156   9.2918  11.4448

     occupation numbers 
     1.0000   1.0004   0.0000   0.0000

          k =-0.2500 0.5000-1.0000 (   311 PWs)   bands (ev):

     3.8916   7.5205   8.9825  12.5483

     occupation numbers 
     1.0000   1.0366   0.0000   0.0000

          k = 0.6250-0.3750-0.1250 (   313 PWs)   bands (ev):

     1.6000   7.9760  12.4019  14.4547

     occupation numbers 
     1.0000   0.0933   0.0000   0.0000

          k = 0.5000-0.2500-0.2500 (   317 PWs)   bands (ev):

     0.0932   8.6717  16.3021  17.0303

     occupation numbers 
     1.0000   0.0000   0.0000   0.0000

          k = 0.3750-0.1250-0.3750 (   309 PWs)   bands (ev):

    -0.5974  10.0697  14.4266  19.5556

     occupation numbers 
     1.0000   0.0000   0.0000   0.0000

          k = 0.2500 0.0000-0.5000 (   311 PWs)   bands (ev):

    -0.4592  11.6813  13.0740  16.5866

     occupation numbers 
     1.0000   0.0000   0.0000   0.0000

          k = 0.2500 0.2500-0.5000 (   317 PWs)   bands (ev):

     0.0932   8.6717  16.3021  17.0303

     occupation numbers 
     1.0000   0.0000   0.0000   0.0000

          k = 0.1250 0.3750-0.6250 (   313 PWs)   bands (ev):

     1.6000   7.9760  12.4019  14.4547

     occupation numbers 
     1.0000   0.0933   0.0000   0.0000

          k = 0.0000 0.5000-0.7500 (   311 PWs)   bands (ev):

     3.8916   7.5205   8.9825  12.5483

     occupation numbers 
     1.0000   1.0366   0.0000   0.0000

          k =-0.1250 0.6250-0.8750 (   308 PWs)   bands (ev):

     4.7903   6.9156   9.2918  11.4448

     occupation numbers 
     1.0000   1.0004   0.0000   0.0000

          k = 0.7500-0.2500 0.0000 (   309 PWs)   bands (ev):

     2.2742  10.1210  10.8323  11.7088

     occupation numbers 
     1.0000   0.0000   0.0000   0.0000

          k = 0.6250-0.1250-0.1250 (   316 PWs)   bands (ev):

     0.5049  11.0548  13.4053  14.7303

     occupation numbers 
     1.0000   0.0000   0.0000   0.0000

          k = 0.5000 0.0000-0.2500 (   311 PWs)   bands (ev):

    -0.4592  11.6813  13.0740  16.5866

     occupation numbers 
     1.0000   0.0000   0.0000   0.0000

          k = 0.3750 0.1250-0.3750 (   309 PWs)   bands (ev):

    -0.5974  10.0697  14.4266  19.5556

     occupation numbers 
     1.0000   0.0000   0.0000   0.0000

          k = 0.2500 0.2500-0.2500 (   311 PWs)   bands (ev):

    -1.5701  11.2687  18.7018  18.7018

     occupation numbers 
     1.0000   0.0000   0.0000   0.0000

          k = 0.1250 0.3750-0.3750 (   309 PWs)   bands (ev):

    -0.5974  10.0697  14.4266  19.5556

     occupation numbers 
     1.0000   0.0000   0.0000   0.0000

          k = 0.0000 0.5000-0.5000 (   315 PWs)   bands (ev):

     1.1914   9.0794  10.5765  17.2785

     occupation numbers 
     1.0000   0.0000   0.0000   0.0000

          k =-0.1250 0.6250-0.6250 (   307 PWs)   bands (ev):

     3.7613   5.8707  10.3622  15.7059

     occupation numbers 
     1.0000   1.0000   0.0000   0.0000

          k = 0.7500-0.2500 0.2500 (   311 PWs)   bands (ev):

     2.8155   7.0881  11.4830  14.8566

     occupation numbers 
     1.0000   1.0068   0.0000   0.0000

          k = 0.6250-0.1250 0.1250 (   316 PWs)   bands (ev):

     0.5049  11.0548  13.4053  14.7303

     occupation numbers 
     1.0000   0.0000   0.0000   0.0000

          k = 0.5000 0.0000 0.0000 (   311 PWs)   bands (ev):

    -1.0136  15.3153  15.3266  15.3266

     occupation numbers 
     1.0000   0.0000   0.0000   0.0000

          k = 0.3750 0.1250-0.1250 (   308 PWs)   bands (ev):

    -1.7096  13.1258  16.6493  18.1733

     occupation numbers 
     1.0000   0.0000   0.0000   0.0000

          k = 0.3750 0.3750-0.1250 (   309 PWs)   bands (ev):

    -0.5974  10.0697  14.4266  19.5556

     occupation numbers 
     1.0000   0.0000   0.0000   0.0000

          k = 0.2500 0.5000-0.2500 (   317 PWs)   bands (ev):

     0.0932   8.6717  16.3021  17.0303

     occupation numbers 
     1.0000   0.0000   0.0000   0.0000

          k = 0.1250 0.6250-0.3750 (   313 PWs)   bands (ev):

     1.6000   7.9760  12.4019  14.4547

     occupation numbers 
     1.0000   0.0933   0.0000   0.0000

          k = 0.0000 0.7500-0.5000 (   311 PWs)   bands (ev):

     3.8916   7.5205   8.9825  12.5483

     occupation numbers 
     1.0000   1.0366   0.0000   0.0000

          k = 0.8750-0.1250 0.3750 (   308 PWs)   bands (ev):

     4.7903   6.9156   9.2918  11.4448

     occupation numbers 
     1.0000   1.0004   0.0000   0.0000

          k = 0.7500 0.0000 0.2500 (   309 PWs)   bands (ev):

     2.2742  10.1210  10.8323  11.7088

     occupation numbers 
     1.0000   0.0000   0.0000   0.0000

          k = 0.6250 0.1250 0.1250 (   316 PWs)   bands (ev):

     0.5049  11.0548  13.4053  14.7303

     occupation numbers 
     1.0000   0.0000   0.0000   0.0000

          k = 0.5000 0.2500 0.0000 (   311 PWs)   bands (ev):

    -0.4592  11.6813  13.0740  16.5866

     occupation numbers 
     1.0000   0.0000   0.0000   0.0000

          k = 0.5000 0.5000 0.0000 (   315 PWs)   bands (ev):

     1.1914   9.0794  10.5765  17.2785

     occupation numbers 
     1.0000   0.0000   0.0000   0.0000

          k = 0.3750 0.6250-0.1250 (   313 PWs)   bands (ev):

     1.6000   7.9760  12.4019  14.4547

     occupation numbers 
     1.0000   0.0933   0.0000   0.0000

          k = 0.2500 0.7500-0.2500 (   311 PWs)   bands (ev):

     2.8155   7.0881  11.4830  14.8566

     occupation numbers 
     1.0000   1.0068   0.0000   0.0000

          k = 0.1250 0.8750-0.3750 (   308 PWs)   bands (ev):

     4.7903   6.9156   9.2918  11.4448

     occupation numbers 
     1.0000   1.0004   0.0000   0.0000

          k = 1.0000 0.0000 0.5000 (   308 PWs)   bands (ev):

     7.0015   7.0015   8.0199   8.9169

     occupation numbers 
     1.0019   1.0019   0.0575   0.0000

          k = 0.8750 0.1250 0.3750 (   308 PWs)   bands (ev):

     4.7903   6.9156   9.2918  11.4448

     occupation numbers 
     1.0000   1.0004   0.0000   0.0000

          k = 0.7500 0.2500 0.2500 (   311 PWs)   bands (ev):

     2.8155   7.0881  11.4830  14.8566

     occupation numbers 
     1.0000   1.0068   0.0000   0.0000

          k = 0.6250 0.3750 0.1250 (   313 PWs)   bands (ev):

     1.6000   7.9760  12.4019  14.4547

     occupation numbers 
     1.0000   0.0933   0.0000   0.0000

          k = 0.6250 0.6250 0.1250 (   307 PWs)   bands (ev):

     3.7613   5.8707  10.3622  15.7059

     occupation numbers 
     1.0000   1.0000   0.0000   0.0000

          k = 0.5000 0.7500 0.0000 (   311 PWs)   bands (ev):

     3.8916   7.5205   8.9825  12.5483

     occupation numbers 
     1.0000   1.0366   0.0000   0.0000

          k = 0.3750 0.8750-0.1250 (   308 PWs)   bands (ev):

     4.7903   6.9156   9.2918  11.4448

     occupation numbers 
     1.0000   1.0004   0.0000   0.0000

          k = 0.2500 1.0000-0.2500 (   308 PWs)   bands (ev):

     5.9648   6.4896   7.4341  14.3755

     occupation numbers 
     1.0000   1.0000   1.0823   0.0000

          k = 1.1250 0.1250 0.6250 (   308 PWs)   bands (ev):

     4.7903   6.9156   9.2918  11.4448

     occupation numbers 
     1.0000   1.0004   0.0000   0.0000

          k = 1.0000 0.2500 0.5000 (   311 PWs)   bands (ev):

     3.8916   7.5205   8.9825  12.5483

     occupation numbers 
     1.0000   1.0366   0.0000   0.0000

          k = 0.8750 0.3750 0.3750 (   307 PWs)   bands (ev):

     3.7613   5.8707  10.3622  15.7059

     occupation numbers 
     1.0000   1.0000   0.0000   0.0000

          k = 0.7500 0.5000 0.2500 (   308 PWs)   bands (ev):

     4.3120   4.5595  12.8025  13.2583

     occupation numbers 
     1.0000   1.0000   0.0000   0.0000

          k =-0.2500-0.2500-0.7500 (   311 PWs)   bands (ev):

     2.8155   7.0881  11.4830  14.8566

     occupation numbers 
     1.0000   1.0068   0.0000   0.0000

          k =-0.3750-0.1250-0.8750 (   308 PWs)   bands (ev):

     4.7903   6.9156   9.2918  11.4448

     occupation numbers 
     1.0000   1.0004   0.0000   0.0000

          k =-0.5000 0.0000-1.0000 (   308 PWs)   bands (ev):

     7.0015   7.0015   8.0199   8.9169

     occupation numbers 
     1.0019   1.0019   0.0575   0.0000

          k =-0.6250 0.1250-1.1250 (   308 PWs)   bands (ev):

     4.7903   6.9156   9.2918  11.4448

     occupation numbers 
     1.0000   1.0004   0.0000   0.0000

          k = 0.2500-0.7500-0.2500 (   311 PWs)   bands (ev):

     2.8155   7.0881  11.4830  14.8566

     occupation numbers 
     1.0000   1.0068   0.0000   0.0000

          k = 0.1250-0.6250-0.3750 (   313 PWs)   bands (ev):

     1.6000   7.9760  12.4019  14.4547

     occupation numbers 
     1.0000   0.0933   0.0000   0.0000

          k = 0.0000-0.5000-0.5000 (   315 PWs)   bands (ev):

     1.1914   9.0794  10.5765  17.2785

     occupation numbers 
     1.0000   0.0000   0.0000   0.0000

          k =-0.1250-0.3750-0.6250 (   313 PWs)   bands (ev):

     1.6000   7.9760  12.4019  14.4547

     occupation numbers 
     1.0000   0.0933   0.0000   0.0000

          k =-0.1250-0.1250-0.6250 (   316 PWs)   bands (ev):

     0.5049  11.0548  13.4053  14.7303

     occupation numbers 
     1.0000   0.0000   0.0000   0.0000

          k =-0.2500 0.0000-0.7500 (   309 PWs)   bands (ev):

     2.2742  10.1210  10.8323  11.7088

     occupation numbers 
     1.0000   0.0000   0.0000   0.0000

          k =-0.3750 0.1250-0.8750 (   308 PWs)   bands (ev):

     4.7903   6.9156   9.2918  11.4448

     occupation numbers 
     1.0000   1.0004   0.0000   0.0000

          k =-0.5000 0.2500-1.0000 (   311 PWs)   bands (ev):

     3.8916   7.5205   8.9825  12.5483

     occupation numbers 
     1.0000   1.0366   0.0000   0.0000

          k = 0.3750-0.6250-0.1250 (   313 PWs)   bands (ev):

     1.6000   7.9760  12.4019  14.4547

     occupation numbers 
     1.0000   0.0933   0.0000   0.0000

          k = 0.2500-0.5000-0.2500 (   317 PWs)   bands (ev):

     0.0932   8.6717  16.3021  17.0303

     occupation numbers 
     1.0000   0.0000   0.0000   0.0000

          k = 0.1250-0.3750-0.3750 (   309 PWs)   bands (ev):

    -0.5974  10.0697  14.4266  19.5556

     occupation numbers 
     1.0000   0.0000   0.0000   0.0000

          k = 0.0000-0.2500-0.5000 (   311 PWs)   bands (ev):

    -0.4592  11.6813  13.0740  16.5866

     occupation numbers 
     1.0000   0.0000   0.0000   0.0000

          k = 0.0000 0.0000-0.5000 (   311 PWs)   bands (ev):

    -1.0136  15.3153  15.3266  15.3266

     occupation numbers 
     1.0000   0.0000   0.0000   0.0000

          k =-0.1250 0.1250-0.6250 (   316 PWs)   bands (ev):

     0.5049  11.0548  13.4053  14.7303

     occupation numbers 
     1.0000   0.0000   0.0000   0.0000

          k =-0.2500 0.2500-0.7500 (   311 PWs)   bands (ev):

     2.8155   7.0881  11.4830  14.8566

     occupation numbers 
     1.0000   1.0068   0.0000   0.0000

          k =-0.3750 0.3750-0.8750 (   307 PWs)   bands (ev):

     3.7613   5.8707  10.3622  15.7059

     occupation numbers 
     1.0000   1.0000   0.0000   0.0000

          k = 0.5000-0.5000 0.0000 (   315 PWs)   bands (ev):

     1.1914   9.0794  10.5765  17.2785

     occupation numbers 
     1.0000   0.0000   0.0000   0.0000

          k = 0.3750-0.3750-0.1250 (   309 PWs)   bands (ev):

    -0.5974  10.0697  14.4266  19.5556

     occupation numbers 
     1.0000   0.0000   0.0000   0.0000

          k = 0.2500-0.2500-0.2500 (   311 PWs)   bands (ev):

    -1.5701  11.2687  18.7018  18.7018

     occupation numbers 
     1.0000   0.0000   0.0000   0.0000

          k = 0.1250-0.1250-0.3750 (   308 PWs)   bands (ev):

    -1.7096  13.1258  16.6493  18.1733

     occupation numbers 
     1.0000   0.0000   0.0000   0.0000

          k = 0.1250 0.1250-0.3750 (   308 PWs)   bands (ev):

    -1.7096  13.1258  16.6493  18.1733

     occupation numbers 
     1.0000   0.0000   0.0000   0.0000

          k = 0.0000 0.2500-0.5000 (   311 PWs)   bands (ev):

    -0.4592  11.6813  13.0740  16.5866

     occupation numbers 
     1.0000   0.0000   0.0000   0.0000

          k =-0.1250 0.3750-0.6250 (   313 PWs)   bands (ev):

     1.6000   7.9760  12.4019  14.4547

     occupation numbers 
     1.0000   0.0933   0.0000   0.0000

          k =-0.2500 0.5000-0.7500 (   308 PWs)   bands (ev):

     4.3120   4.5595  12.8025  13.2583

     occupation numbers 
     1.0000   1.0000   0.0000   0.0000

          k = 0.6250-0.3750 0.1250 (   313 PWs)   bands (ev):

     1.6000   7.9760  12.4019  14.4547

     occupation numbers 
     1.0000   0.0933   0.0000   0.0000

          k = 0.5000-0.2500 0.0000 (   311 PWs)   bands (ev):

    -0.4592  11.6813  13.0740  16.5866

     occupation numbers 
     1.0000   0.0000   0.0000   0.0000

          k = 0.3750-0.1250-0.1250 (   308 PWs)   bands (ev):

    -1.7096  13.1258  16.6493  18.1733

     occupation numbers 
     1.0000   0.0000   0.0000   0.0000

          k = 0.2500 0.0000-0.2500 (   317 PWs)   bands (ev):

    -2.1289  14.2719  15.5010  21.5185

     occupation numbers 
     1.0000   0.0000   0.0000   0.0000

          k = 0.1250 0.1250-0.1250 (   316 PWs)   bands (ev):

    -2.8306  16.1289  19.4677  19.4677

     occupation numbers 
     1.0000   0.0000   0.0000   0.0000

          k = 0.0000 0.2500-0.2500 (   317 PWs)   bands (ev):

    -2.1289  14.2719  15.5010  21.5185

     occupation numbers 
     1.0000   0.0000   0.0000   0.0000

          k =-0.1250 0.3750-0.3750 (   309 PWs)   bands (ev):

    -0.5974  10.0697  14.4266  19.5556

     occupation numbers 
     1.0000   0.0000   0.0000   0.0000

          k =-0.2500 0.5000-0.5000 (   308 PWs)   bands (ev):

     1.7376   6.0426  14.5263  17.7646

     occupation numbers 
     1.0000   1.0000   0.0000   0.0000

          k = 0.6250-0.3750 0.3750 (   312 PWs)   bands (ev):

     2.6858   4.8512  15.4059  16.6736

     occupation numbers 
     1.0000   1.0000   0.0000   0.0000

          k = 0.5000-0.2500 0.2500 (   317 PWs)   bands (ev):

     0.0932   8.6717  16.3021  17.0303

     occupation numbers 
     1.0000   0.0000   0.0000   0.0000

          k = 0.3750-0.1250 0.1250 (   308 PWs)   bands (ev):

    -1.7096  13.1258  16.6493  18.1733

     occupation numbers 
     1.0000   0.0000   0.0000   0.0000

          k = 0.2500 0.0000 0.0000 (   307 PWs)   bands (ev):

    -2.6899  17.7115  17.7115  17.9822

     occupation numbers 
     1.0000   0.0000   0.0000   0.0000

          k = 0.2500 0.2500 0.0000 (   317 PWs)   bands (ev):

    -2.1289  14.2719  15.5010  21.5185

     occupation numbers 
     1.0000   0.0000   0.0000   0.0000

          k = 0.1250 0.3750-0.1250 (   308 PWs)   bands (ev):

    -1.7096  13.1258  16.6493  18.1733

     occupation numbers 
     1.0000   0.0000   0.0000   0.0000

          k = 0.0000 0.5000-0.2500 (   311 PWs)   bands (ev):

    -0.4592  11.6813  13.0740  16.5866

     occupation numbers 
     1.0000   0.0000   0.0000   0.0000

          k =-0.1250 0.6250-0.3750 (   313 PWs)   bands (ev):

     1.6000   7.9760  12.4019  14.4547

     occupation numbers 
     1.0000   0.0933   0.0000   0.0000

          k = 0.7500-0.2500 0.5000 (   308 PWs)   bands (ev):

     4.3120   4.5595  12.8025  13.2583

     occupation numbers 
     1.0000   1.0000   0.0000   0.0000

          k = 0.6250-0.1250 0.3750 (   313 PWs)   bands (ev):

     1.6000   7.9760  12.4019  14.4547

     occupation numbers 
     1.0000   0.0933   0.0000   0.0000

          k = 0.5000 0.0000 0.2500 (   311 PWs)   bands (ev):

    -0.4592  11.6813  13.0740  16.5866

     occupation numbers 
     1.0000   0.0000   0.0000   0.0000

          k = 0.3750 0.1250 0.1250 (   308 PWs)   bands (ev):

    -1.7096  13.1258  16.6493  18.1733

     occupation numbers 
     1.0000   0.0000   0.0000   0.0000

          k = 0.3750 0.3750 0.1250 (   309 PWs)   bands (ev):

    -0.5974  10.0697  14.4266  19.5556

     occupation numbers 
     1.0000   0.0000   0.0000   0.0000

          k = 0.2500 0.5000 0.0000 (   311 PWs)   bands (ev):

    -0.4592  11.6813  13.0740  16.5866

     occupation numbers 
     1.0000   0.0000   0.0000   0.0000

          k = 0.1250 0.6250-0.1250 (   316 PWs)   bands (ev):

     0.5049  11.0548  13.4053  14.7303

     occupation numbers 
     1.0000   0.0000   0.0000   0.0000

          k = 0.0000 0.7500-0.2500 (   309 PWs)   bands (ev):

     2.2742  10.1210  10.8323  11.7088

     occupation numbers 
     1.0000   0.0000   0.0000   0.0000

          k = 0.8750-0.1250 0.6250 (   308 PWs)   bands (ev):

     4.7903   6.9156   9.2918  11.4448

     occupation numbers 
     1.0000   1.0004   0.0000   0.0000

          k = 0.7500 0.0000 0.5000 (   311 PWs)   bands (ev):

     3.8916   7.5205   8.9825  12.5483

     occupation numbers 
     1.0000   1.0366   0.0000   0.0000

          k = 0.6250 0.1250 0.3750 (   313 PWs)   bands (ev):

     1.6000   7.9760  12.4019  14.4547

     occupation numbers 
     1.0000   0.0933   0.0000   0.0000

          k = 0.5000 0.2500 0.2500 (   317 PWs)   bands (ev):

     0.0932   8.6717  16.3021  17.0303

     occupation numbers 
     1.0000   0.0000   0.0000   0.0000

          k = 0.5000 0.5000 0.2500 (   308 PWs)   bands (ev):

     1.7376   6.0426  14.5263  17.7646

     occupation numbers 
     1.0000   1.0000   0.0000   0.0000

          k = 0.3750 0.6250 0.1250 (   313 PWs)   bands (ev):

     1.6000   7.9760  12.4019  14.4547

     occupation numbers 
     1.0000   0.0933   0.0000   0.0000

          k = 0.2500 0.7500 0.0000 (   309 PWs)   bands (ev):

     2.2742  10.1210  10.8323  11.7088

     occupation numbers 
     1.0000   0.0000   0.0000   0.0000

          k = 0.1250 0.8750-0.1250 (   314 PWs)   bands (ev):

     3.7269   8.2117  10.0447  13.7707

     occupation numbers 
     1.0000   0.0038   0.0000   0.0000

          k = 1.0000 0.0000 0.7500 (   308 PWs)   bands (ev):

     5.4472   6.7821   9.6005  11.0981

     occupation numbers 
     1.0000   1.0000   0.0000   0.0000

          k = 0.8750 0.1250 0.6250 (   308 PWs)   bands (ev):

     4.7903   6.9156   9.2918  11.4448

     occupation numbers 
     1.0000   1.0004   0.0000   0.0000

          k = 0.7500 0.2500 0.5000 (   308 PWs)   bands (ev):

     4.3120   4.5595  12.8025  13.2583

     occupation numbers 
     1.0000   1.0000   0.0000   0.0000

          k = 0.6250 0.3750 0.3750 (   312 PWs)   bands (ev):

     2.6858   4.8512  15.4059  16.6736

     occupation numbers 
     1.0000   1.0000   0.0000   0.0000

          k =-0.3750-0.3750-0.6250 (   312 PWs)   bands (ev):

     2.6858   4.8512  15.4059  16.6736

     occupation numbers 
     1.0000   1.0000   0.0000   0.0000

          k =-0.5000-0.2500-0.7500 (   308 PWs)   bands (ev):

     4.3120   4.5595  12.8025  13.2583

     occupation numbers 
     1.0000   1.0000   0.0000   0.0000

          k =-0.6250-0.1250-0.8750 (   308 PWs)   bands (ev):

     4.7903   6.9156   9.2918  11.4448

     occupation numbers 
     1.0000   1.0004   0.0000   0.0000

          k =-0.7500 0.0000-1.0000 (   308 PWs)   bands (ev):

     5.4472   6.7821   9.6005  11.0981

     occupation numbers 
     1.0000   1.0000   0.0000   0.0000

          k = 0.1250-0.8750-0.1250 (   314 PWs)   bands (ev):

     3.7269   8.2117  10.0447  13.7707

     occupation numbers 
     1.0000   0.0038   0.0000   0.0000

          k = 0.0000-0.7500-0.2500 (   309 PWs)   bands (ev):

     2.2742  10.1210  10.8323  11.7088

     occupation numbers 
     1.0000   0.0000   0.0000   0.0000

          k =-0.1250-0.6250-0.3750 (   313 PWs)   bands (ev):

     1.6000   7.9760  12.4019  14.4547

     occupation numbers 
     1.0000   0.0933   0.0000   0.0000

          k =-0.2500-0.5000-0.5000 (   308 PWs)   bands (ev):

     1.7376   6.0426  14.5263  17.7646

     occupation numbers 
     1.0000   1.0000   0.0000   0.0000

          k =-0.2500-0.2500-0.5000 (   317 PWs)   bands (ev):

     0.0932   8.6717  16.3021  17.0303

     occupation numbers 
     1.0000   0.0000   0.0000   0.0000

          k =-0.3750-0.1250-0.6250 (   313 PWs)   bands (ev):

     1.6000   7.9760  12.4019  14.4547

     occupation numbers 
     1.0000   0.0933   0.0000   0.0000

          k =-0.5000 0.0000-0.7500 (   311 PWs)   bands (ev):

     3.8916   7.5205   8.9825  12.5483

     occupation numbers 
     1.0000   1.0366   0.0000   0.0000

          k =-0.6250 0.1250-0.8750 (   308 PWs)   bands (ev):

     4.7903   6.9156   9.2918  11.4448

     occupation numbers 
     1.0000   1.0004   0.0000   0.0000

          k = 0.2500-0.7500 0.0000 (   309 PWs)   bands (ev):

     2.2742  10.1210  10.8323  11.7088

     occupation numbers 
     1.0000   0.0000   0.0000   0.0000

          k = 0.1250-0.6250-0.1250 (   316 PWs)   bands (ev):

     0.5049  11.0548  13.4053  14.7303

     occupation numbers 
     1.0000   0.0000   0.0000   0.0000

          k = 0.0000-0.5000-0.2500 (   311 PWs)   bands (ev):

    -0.4592  11.6813  13.0740  16.5866

     occupation numbers 
     1.0000   0.0000   0.0000   0.0000

          k =-0.1250-0.3750-0.3750 (   309 PWs)   bands (ev):

    -0.5974  10.0697  14.4266  19.5556

     occupation numbers 
     1.0000   0.0000   0.0000   0.0000

          k =-0.1250-0.1250-0.3750 (   308 PWs)   bands (ev):

    -1.7096  13.1258  16.6493  18.1733

     occupation numbers 
     1.0000   0.0000   0.0000   0.0000

          k =-0.2500 0.0000-0.5000 (   311 PWs)   bands (ev):

    -0.4592  11.6813  13.0740  16.5866

     occupation numbers 
     1.0000   0.0000   0.0000   0.0000

          k =-0.3750 0.1250-0.6250 (   313 PWs)   bands (ev):

     1.6000   7.9760  12.4019  14.4547

     occupation numbers 
     1.0000   0.0933   0.0000   0.0000

          k =-0.5000 0.2500-0.7500 (   308 PWs)   bands (ev):

     4.3120   4.5595  12.8025  13.2583

     occupation numbers 
     1.0000   1.0000   0.0000   0.0000

          k = 0.3750-0.6250 0.1250 (   313 PWs)   bands (ev):

     1.6000   7.9760  12.4019  14.4547

     occupation numbers 
     1.0000   0.0933   0.0000   0.0000

          k = 0.2500-0.5000 0.0000 (   311 PWs)   bands (ev):

    -0.4592  11.6813  13.0740  16.5866

     occupation numbers 
     1.0000   0.0000   0.0000   0.0000

          k = 0.1250-0.3750-0.1250 (   308 PWs)   bands (ev):

    -1.7096  13.1258  16.6493  18.1733

     occupation numbers 
     1.0000   0.0000   0.0000   0.0000

          k = 0.0000-0.2500-0.2500 (   317 PWs)   bands (ev):

    -2.1289  14.2719  15.5010  21.5185

     occupation numbers 
     1.0000   0.0000   0.0000   0.0000

          k = 0.0000 0.0000-0.2500 (   307 PWs)   bands (ev):

    -2.6899  17.7115  17.7115  17.9822

     occupation numbers 
     1.0000   0.0000   0.0000   0.0000

          k =-0.1250 0.1250-0.3750 (   308 PWs)   bands (ev):

    -1.7096  13.1258  16.6493  18.1733

     occupation numbers 
     1.0000   0.0000   0.0000   0.0000

          k =-0.2500 0.2500-0.5000 (   317 PWs)   bands (ev):

     0.0932   8.6717  16.3021  17.0303

     occupation numbers 
     1.0000   0.0000   0.0000   0.0000

          k =-0.3750 0.3750-0.6250 (   312 PWs)   bands (ev):

     2.6858   4.8512  15.4059  16.6736

     occupation numbers 
     1.0000   1.0000   0.0000   0.0000

          k = 0.5000-0.5000 0.2500 (   308 PWs)   bands (ev):

     1.7376   6.0426  14.5263  17.7646

     occupation numbers 
     1.0000   1.0000   0.0000   0.0000

          k = 0.3750-0.3750 0.1250 (   309 PWs)   bands (ev):

    -0.5974  10.0697  14.4266  19.5556

     occupation numbers 
     1.0000   0.0000   0.0000   0.0000

          k = 0.2500-0.2500 0.0000 (   317 PWs)   bands (ev):

    -2.1289  14.2719  15.5010  21.5185

     occupation numbers 
     1.0000   0.0000   0.0000   0.0000

          k = 0.1250-0.1250-0.1250 (   316 PWs)   bands (ev):

    -2.8306  16.1289  19.4677  19.4677

     occupation numbers 
     1.0000   0.0000   0.0000   0.0000

     the Fermi energy is     7.8018 ev
     (compare with:     7.8018 eV, computed in scf)

     Writing all to output data dir ./tmp/al.save/ :
     XML data file, pseudopotentials, collected wavefunctions

     init_run     :      0.27s CPU      0.27s WALL (       1 calls)
     electrons    :      4.06s CPU      4.43s WALL (       1 calls)

     Called by init_run:
     wfcinit      :      0.00s CPU      0.00s WALL (       1 calls)
     wfcinit:atom :      0.01s CPU      0.01s WALL (     512 calls)
     wfcinit:wfcr :      0.17s CPU      0.19s WALL (     512 calls)
     potinit      :      0.08s CPU      0.08s WALL (       1 calls)
     hinit0       :      0.16s CPU      0.16s WALL (       1 calls)

     Called by electrons:
     c_bands      :      4.05s CPU      4.43s WALL (       1 calls)
     v_of_rho     :      0.00s CPU      0.00s WALL (       1 calls)
     v_h          :      0.00s CPU      0.00s WALL (       1 calls)
     v_xc         :      0.00s CPU      0.00s WALL (       1 calls)
     newd         :      0.01s CPU      0.02s WALL (       1 calls)

     Called by c_bands:
     init_us_2    :      0.02s CPU      0.02s WALL (     512 calls)
     cegterg      :      3.80s CPU      4.13s WALL (    1177 calls)

     Called by sum_band:

     Called by *egterg:
     cdiaghg      :      0.21s CPU      0.23s WALL (   19335 calls)
     cegterg:over :      0.24s CPU      0.26s WALL (   18823 calls)
     cegterg:upda :      0.14s CPU      0.15s WALL (   18823 calls)
     cegterg:last :      0.36s CPU      0.39s WALL (   15236 calls)
     h_psi        :      2.47s CPU      2.69s WALL (   20512 calls)
     s_psi        :      0.31s CPU      0.34s WALL (   20512 calls)
     g_psi        :      0.05s CPU      0.05s WALL (   18823 calls)

     Called by h_psi:
     h_psi:calbec :      0.31s CPU      0.34s WALL (   20512 calls)
     vloc_psi     :      1.78s CPU      1.93s WALL (   20512 calls)
                                        0.00s GPU  (   20512 calls)
     add_vuspsi   :      0.31s CPU      0.34s WALL (   20512 calls)

     General routines
     calbec       :      0.29s CPU      0.32s WALL (   20512 calls)
     fft          :      0.04s CPU      0.04s WALL (      13 calls)
     ffts         :      0.08s CPU      0.08s WALL (       1 calls)
     fftw         :      1.34s CPU      1.46s WALL (  128498 calls)
     interpolate  :      0.08s CPU      0.08s WALL (       1 calls)
     davcio       :      0.01s CPU      0.01s WALL (    1024 calls)

     Parallel routines

     PWSCF        :      4.39s CPU      4.79s WALL


   This run was terminated on:   4:22: 0   5Aug2026            

=------------------------------------------------------------------------------=
   JOB DONE.
=------------------------------------------------------------------------------=
