
     Program PWSCF v.7.5 starts on  5Aug2026 at  2:28:26 

     This program is part of the open-source Quantum ESPRESSO suite
     for quantum simulation of materials; please cite
         "P. Giannozzi et al., J. Phys.:Condens. Matter 21 395502 (2009);
         "P. Giannozzi et al., J. Phys.:Condens. Matter 29 465901 (2017);
         "P. Giannozzi et al., J. Chem. Phys. 152 154105 (2020);
          URL http://www.quantum-espresso.org", 
     in publications or presentations arising from this work. More details at
     http://www.quantum-espresso.org/quote

     Parallel version (MPI), running on     1 processors

     MPI processes distributed on     1 nodes
     4823 MiB available memory on the printing compute node when the environment starts

     Reading input from input/fm-k10.scf.in

     Current dimensions of program PWSCF are:
     Max number of different atomic species (ntypx) = 10
     Max number of k-points (npk) =  40000
     Max angular momentum in pseudopotentials (lmaxx) =  4
     file Fe.pbe-spn-kjpaw_psl.0.2.1.UPF: wavefunction(s)  3D renormalized

     Subspace diagonalization in iterative solution of the eigenvalue problem:
     a serial algorithm will be used


     G-vector sticks info
     --------------------
     sticks:   dense  smooth     PW     G-vecs:    dense   smooth      PW
     Sum        1383     467    151                32565     6363    1157

     Using Slab Decomposition



     bravais-lattice index     =            3
     lattice parameter (alat)  =       5.4169  a.u.
     unit-cell volume          =      79.4735 (a.u.)^3
     number of atoms/cell      =            1
     number of atomic types    =            1
     number of electrons       =        16.00
     number of Kohn-Sham states=           12
     kinetic-energy cutoff     =      70.0000  Ry
     charge density cutoff     =     840.0000  Ry
     scf convergence threshold =      1.0E-10
     mixing beta               =       0.7000
     number of iterations used =            8  plain     mixing
     Exchange-correlation= SLA  PW   PBX  PBC
                           (   1   4   3   4   0   0   0)

     celldm(1)=   5.416900  celldm(2)=   0.000000  celldm(3)=   0.000000
     celldm(4)=   0.000000  celldm(5)=   0.000000  celldm(6)=   0.000000

     crystal axes: (cart. coord. in units of alat)
               a(1) = (   0.500000   0.500000   0.500000 )  
               a(2) = (  -0.500000   0.500000   0.500000 )  
               a(3) = (  -0.500000  -0.500000   0.500000 )  

     reciprocal axes: (cart. coord. in units 2 pi/alat)
               b(1) = (  1.000000  0.000000  1.000000 )  
               b(2) = ( -1.000000  1.000000  0.000000 )  
               b(3) = (  0.000000 -1.000000  1.000000 )  


     PseudoPot. # 1 for Fe read from file:
     ./pseudo/Fe.pbe-spn-kjpaw_psl.0.2.1.UPF
     MD5 check sum: e86618425769142926afa95317d90200
     Pseudo is Projector augmented-wave + core cor, Zval = 16.0
     Generated using "atomic" code by A. Dal Corso  v.5.0.99 svn rev. 10869
     Shape of augmentation charge: PSQ
     Using radial grid of 1191 points,  6 beta functions with: 
                l(1) =   0
                l(2) =   0
                l(3) =   1
                l(4) =   1
                l(5) =   2
                l(6) =   2
     Q(r) pseudized with 0 coefficients 


     atomic species   valence    mass     pseudopotential
     Fe               16.00    55.84500     Fe( 1.00)

     Starting magnetic structure 
     atomic species   magnetization
     Fe              0.200

     48 Sym. Ops., with inversion, found



   Cartesian axes

     site n.     atom                  positions (alat units)
         1        Fe     tau(   1) = (   0.0000000   0.0000000   0.0000000  )

     number of k points=    47  Marzari-Vanderbilt smearing, width (Ry)=  0.0200
                       cart. coord. in units 2pi/alat
        k(    1) = (   0.0000000   0.0000000   0.0000000), wk =   0.0010000
        k(    2) = (   0.0000000  -0.1000000   0.1000000), wk =   0.0120000
        k(    3) = (   0.0000000  -0.2000000   0.2000000), wk =   0.0120000
        k(    4) = (   0.0000000  -0.3000000   0.3000000), wk =   0.0120000
        k(    5) = (   0.0000000  -0.4000000   0.4000000), wk =   0.0120000
        k(    6) = (   0.0000000   0.5000000  -0.5000000), wk =   0.0060000
        k(    7) = (  -0.1000000  -0.1000000   0.2000000), wk =   0.0240000
        k(    8) = (  -0.1000000  -0.2000000   0.3000000), wk =   0.0480000
        k(    9) = (  -0.1000000  -0.3000000   0.4000000), wk =   0.0480000
        k(   10) = (  -0.1000000   0.6000000  -0.5000000), wk =   0.0480000
        k(   11) = (  -0.2000000  -0.2000000   0.4000000), wk =   0.0240000
        k(   12) = (  -0.2000000   0.7000000  -0.5000000), wk =   0.0480000
        k(   13) = (  -0.2000000   0.6000000  -0.4000000), wk =   0.0240000
        k(   14) = (  -0.3000000   0.7000000  -0.4000000), wk =   0.0240000
        k(   15) = (   0.0000000   0.0000000   0.2000000), wk =   0.0060000
        k(   16) = (   0.0000000  -0.1000000   0.3000000), wk =   0.0240000
        k(   17) = (   0.0000000  -0.2000000   0.4000000), wk =   0.0240000
        k(   18) = (   0.0000000  -0.3000000   0.5000000), wk =   0.0240000
        k(   19) = (   0.0000000   0.6000000  -0.4000000), wk =   0.0120000
        k(   20) = (  -0.1000000  -0.1000000   0.4000000), wk =   0.0240000
        k(   21) = (  -0.1000000  -0.2000000   0.5000000), wk =   0.0480000
        k(   22) = (  -0.1000000   0.7000000  -0.4000000), wk =   0.0480000
        k(   23) = (  -0.2000000   0.2000000   0.2000000), wk =   0.0080000
        k(   24) = (  -0.2000000   0.8000000  -0.4000000), wk =   0.0240000
        k(   25) = (  -0.2000000   0.7000000  -0.3000000), wk =   0.0240000
        k(   26) = (  -0.3000000   0.3000000   0.2000000), wk =   0.0240000
        k(   27) = (   0.6000000  -0.6000000   0.2000000), wk =   0.0240000
        k(   28) = (   0.6000000  -0.7000000   0.3000000), wk =   0.0240000
        k(   29) = (   0.5000000  -0.5000000   0.2000000), wk =   0.0120000
        k(   30) = (   0.5000000  -0.6000000   0.3000000), wk =   0.0480000
        k(   31) = (   0.4000000  -0.6000000   0.4000000), wk =   0.0080000
        k(   32) = (   0.0000000   0.0000000   0.4000000), wk =   0.0060000
        k(   33) = (   0.0000000  -0.1000000   0.5000000), wk =   0.0240000
        k(   34) = (   0.0000000  -0.2000000   0.6000000), wk =   0.0240000
        k(   35) = (   0.0000000   0.7000000  -0.3000000), wk =   0.0120000
        k(   36) = (  -0.1000000  -0.1000000   0.6000000), wk =   0.0240000
        k(   37) = (  -0.1000000   0.8000000  -0.3000000), wk =   0.0480000
        k(   38) = (  -0.2000000   0.8000000  -0.2000000), wk =   0.0080000
        k(   39) = (   0.6000000  -0.6000000   0.4000000), wk =   0.0080000
        k(   40) = (   0.5000000  -0.5000000   0.4000000), wk =   0.0120000
        k(   41) = (   0.0000000   0.0000000   0.6000000), wk =   0.0060000
        k(   42) = (   0.0000000  -0.1000000   0.7000000), wk =   0.0240000
        k(   43) = (   0.0000000   0.8000000  -0.2000000), wk =   0.0120000
        k(   44) = (  -0.1000000   0.9000000  -0.2000000), wk =   0.0240000
        k(   45) = (   0.0000000   0.0000000   0.8000000), wk =   0.0060000
        k(   46) = (   0.0000000   0.9000000  -0.1000000), wk =   0.0120000
        k(   47) = (   0.0000000   0.0000000  -1.0000000), wk =   0.0010000

     Dense  grid:    32565 G-vectors     FFT dimensions: (  45,  45,  45)

     Smooth grid:     6363 G-vectors     FFT dimensions: (  25,  25,  25)

     Estimated max dynamical RAM per process >     149.85 MB

     Check: negative core charge=   -0.000012
     Generating pointlists ...
     new r_m :   0.3572 (alat units)  1.9351 (a.u.) for type    1

     Initial potential from superposition of free atoms

     starting charge      15.9996, renormalised to      16.0000
     Starting wfcs are   13 randomized atomic wfcs
     Checking if some PAW data can be deallocated... 

     total cpu time spent up to now is        1.1 secs

     per-process dynamical memory:    44.9 Mb

     Self-consistent Calculation

     iteration #  1     ecut=    70.00 Ry     beta= 0.70
     Davidson diagonalization with overlap
     ethr =  1.00E-02,  avg # of iterations =  3.1

     Threshold (ethr) on eigenvalues was too large:
     Diagonalizing with lowered threshold

     Davidson diagonalization with overlap
     ethr =  1.43E-04,  avg # of iterations =  4.1

     negative rho (up, down):  0.000E+00 2.483E-05

     total cpu time spent up to now is        3.1 secs

     total energy              =    -329.25424540 Ry
     estimated scf accuracy    <       0.02273234 Ry

     total magnetization       =     2.57 Bohr mag/cell
     absolute magnetization    =     2.59 Bohr mag/cell

     iteration #  2     ecut=    70.00 Ry     beta= 0.70
     Davidson diagonalization with overlap
     ethr =  1.42E-04,  avg # of iterations =  2.0

     negative rho (up, down):  0.000E+00 3.214E-05

     total cpu time spent up to now is        4.2 secs

     total energy              =    -329.25594134 Ry
     estimated scf accuracy    <       0.02882396 Ry

     total magnetization       =     2.49 Bohr mag/cell
     absolute magnetization    =     2.55 Bohr mag/cell

     iteration #  3     ecut=    70.00 Ry     beta= 0.70
     Davidson diagonalization with overlap
     ethr =  1.42E-04,  avg # of iterations =  2.0

     negative rho (up, down):  0.000E+00 4.850E-05

     total cpu time spent up to now is        5.3 secs

     total energy              =    -329.26519021 Ry
     estimated scf accuracy    <       0.00545558 Ry

     total magnetization       =     2.34 Bohr mag/cell
     absolute magnetization    =     2.44 Bohr mag/cell

     iteration #  4     ecut=    70.00 Ry     beta= 0.70
     Davidson diagonalization with overlap
     ethr =  3.41E-05,  avg # of iterations =  2.0

     negative rho (up, down):  0.000E+00 3.791E-05

     total cpu time spent up to now is        6.4 secs

     total energy              =    -329.26649501 Ry
     estimated scf accuracy    <       0.00071520 Ry

     total magnetization       =     2.20 Bohr mag/cell
     absolute magnetization    =     2.35 Bohr mag/cell

     iteration #  5     ecut=    70.00 Ry     beta= 0.70
     Davidson diagonalization with overlap
     ethr =  4.47E-06,  avg # of iterations =  2.7

     negative rho (up, down):  0.000E+00 3.800E-05

     total cpu time spent up to now is        7.5 secs

     total energy              =    -329.26717707 Ry
     estimated scf accuracy    <       0.00002215 Ry

     total magnetization       =     2.12 Bohr mag/cell
     absolute magnetization    =     2.27 Bohr mag/cell

     iteration #  6     ecut=    70.00 Ry     beta= 0.70
     Davidson diagonalization with overlap
     ethr =  1.38E-07,  avg # of iterations =  3.6

     negative rho (up, down):  0.000E+00 3.745E-05

     total cpu time spent up to now is        8.8 secs

     total energy              =    -329.26719437 Ry
     estimated scf accuracy    <       0.00000225 Ry

     total magnetization       =     2.13 Bohr mag/cell
     absolute magnetization    =     2.27 Bohr mag/cell

     iteration #  7     ecut=    70.00 Ry     beta= 0.70
     Davidson diagonalization with overlap
     ethr =  1.41E-08,  avg # of iterations =  3.1

     negative rho (up, down):  0.000E+00 3.801E-05

     total cpu time spent up to now is       10.0 secs

     total energy              =    -329.26720023 Ry
     estimated scf accuracy    <       0.00000149 Ry

     total magnetization       =     2.12 Bohr mag/cell
     absolute magnetization    =     2.26 Bohr mag/cell

     iteration #  8     ecut=    70.00 Ry     beta= 0.70
     Davidson diagonalization with overlap
     ethr =  9.31E-09,  avg # of iterations =  1.8

     negative rho (up, down):  0.000E+00 3.768E-05

     total cpu time spent up to now is       11.1 secs

     total energy              =    -329.26720163 Ry
     estimated scf accuracy    <       0.00000065 Ry

     total magnetization       =     2.13 Bohr mag/cell
     absolute magnetization    =     2.27 Bohr mag/cell

     iteration #  9     ecut=    70.00 Ry     beta= 0.70
     Davidson diagonalization with overlap
     ethr =  4.09E-09,  avg # of iterations =  1.5

     negative rho (up, down):  0.000E+00 3.781E-05

     total cpu time spent up to now is       12.2 secs

     total energy              =    -329.26720243 Ry
     estimated scf accuracy    <       0.00000024 Ry

     total magnetization       =     2.12 Bohr mag/cell
     absolute magnetization    =     2.27 Bohr mag/cell

     iteration # 10     ecut=    70.00 Ry     beta= 0.70
     Davidson diagonalization with overlap
     ethr =  1.47E-09,  avg # of iterations =  1.5

     negative rho (up, down):  0.000E+00 3.779E-05

     total cpu time spent up to now is       13.2 secs

     total energy              =    -329.26720258 Ry
     estimated scf accuracy    <          9.2E-09 Ry

     total magnetization       =     2.12 Bohr mag/cell
     absolute magnetization    =     2.27 Bohr mag/cell

     iteration # 11     ecut=    70.00 Ry     beta= 0.70
     Davidson diagonalization with overlap
     ethr =  5.72E-11,  avg # of iterations =  2.8

     negative rho (up, down):  0.000E+00 3.778E-05

     total cpu time spent up to now is       14.4 secs

     total energy              =    -329.26720258 Ry
     estimated scf accuracy    <          1.0E-09 Ry

     total magnetization       =     2.12 Bohr mag/cell
     absolute magnetization    =     2.27 Bohr mag/cell

     iteration # 12     ecut=    70.00 Ry     beta= 0.70
     Davidson diagonalization with overlap
     ethr =  6.35E-12,  avg # of iterations =  2.7

     negative rho (up, down):  0.000E+00 3.778E-05

     Magnetic moment per site  (integrated on atomic sphere of radius R)
     atom   1 (R=0.357)  charge= 14.4193  magn=  2.1879

     total cpu time spent up to now is       15.5 secs

     End of self-consistent calculation

 ------ SPIN UP ------------


          k = 0.0000 0.0000 0.0000 (   791 PWs)   bands (ev):

   -70.5940 -36.4102 -36.4102 -36.4102   9.1770  15.2592  15.2592  15.2592
    16.3676  16.3676  42.0516  42.0516

          k = 0.0000-0.1000 0.1000 (   781 PWs)   bands (ev):

   -70.5876 -36.4453 -36.4216 -36.4096   9.5772  15.1539  15.2449  15.4698
    16.2742  16.3766  39.6197  41.3561

          k = 0.0000-0.2000 0.2000 (   778 PWs)   bands (ev):

   -70.5707 -36.5371 -36.4524 -36.4096  10.6879  14.8854  15.1383  16.0493
    16.1919  16.4077  35.1799  39.3516

          k = 0.0000-0.3000 0.3000 (   788 PWs)   bands (ev):

   -70.5499 -36.6504 -36.4907 -36.4100  12.0523  14.5663  15.2574  16.3090
    16.4621  16.8336  30.5719  37.3263

          k = 0.0000-0.4000 0.4000 (   802 PWs)   bands (ev):

   -70.5330 -36.7406 -36.5225 -36.4105  12.6631  14.3177  16.2775  16.5198
    16.7904  17.5395  26.5302  35.9553

          k = 0.0000 0.5000-0.5000 (   798 PWs)   bands (ev):

   -70.5265 -36.7747 -36.5340 -36.4102  12.7104  14.2249  16.4452  16.5453
    17.8305  17.9590  24.4881  35.4757

          k =-0.1000-0.1000 0.2000 (   784 PWs)   bands (ev):

   -70.5759 -36.5088 -36.4345 -36.4186  10.3390  15.0248  15.0832  15.9094
    16.1495  16.4289  37.1855  38.3415

          k =-0.1000-0.2000 0.3000 (   785 PWs)   bands (ev):

   -70.5571 -36.6055 -36.4715 -36.4218  11.6485  14.7284  14.9191  16.1461
    16.5080  16.6997  33.0081  36.0197

          k =-0.1000-0.3000 0.4000 (   790 PWs)   bands (ev):

   -70.5382 -36.6986 -36.5134 -36.4231  12.7149  14.4420  15.2832  16.3317
    16.6312  17.7194  28.6048  34.5040

          k =-0.1000 0.6000-0.5000 (   789 PWs)   bands (ev):

   -70.5265 -36.7552 -36.5398 -36.4234  12.9038  14.2817  15.9834  16.4266
    17.0400  19.0157  25.1672  33.6670

          k =-0.2000-0.2000 0.4000 (   787 PWs)   bands (ev):

   -70.5402 -36.6733 -36.5093 -36.4382  12.8475  14.4581  14.7764  16.1928
    16.6404  17.8638  30.9803  31.7690

          k =-0.2000 0.7000-0.5000 (   786 PWs)   bands (ev):

   -70.5265 -36.7161 -36.5580 -36.4445  13.4009  14.3108  15.0291  16.3661
    16.7893  19.6100  27.1415  30.2589

          k =-0.2000 0.6000-0.4000 (   784 PWs)   bands (ev):

   -70.5213 -36.7298 -36.5803 -36.4456  13.4026  14.3044  15.2301  16.4434
    16.9259  21.1976  24.6956  29.8236

          k =-0.3000 0.7000-0.4000 (   780 PWs)   bands (ev):

   -70.5193 -36.6938 -36.6219 -36.4542  13.8526  14.2803  14.7172  16.5456
    16.7765  22.2445  25.6292  27.0798

          k = 0.0000 0.0000 0.2000 (   771 PWs)   bands (ev):

   -70.5812 -36.4546 -36.4331 -36.4331   9.9669  15.2671  15.2671  15.4719
    16.0258  16.5006  38.8295  40.6555

          k = 0.0000-0.1000 0.3000 (   782 PWs)   bands (ev):

   -70.5649 -36.5371 -36.4650 -36.4385  11.0383  15.0785  15.1723  15.8346
    15.9977  16.6282  35.4093  38.4215

          k = 0.0000-0.2000 0.4000 (   778 PWs)   bands (ev):

   -70.5445 -36.6451 -36.5034 -36.4368  12.3388  14.7867  14.9755  16.0964
    16.7888  16.8753  30.8520  36.6820

          k = 0.0000-0.3000 0.5000 (   789 PWs)   bands (ev):

   -70.5281 -36.7321 -36.5353 -36.4358  12.9035  14.5556  15.2936  16.2921
    17.5077  17.9840  26.7380  35.5590

          k = 0.0000 0.6000-0.4000 (   792 PWs)   bands (ev):

   -70.5218 -36.7653 -36.5473 -36.4351  12.9306  14.4690  15.5397  16.2756
    17.8056  19.2609  24.5471  35.0134

          k =-0.1000-0.1000 0.4000 (   788 PWs)   bands (ev):

   -70.5470 -36.6097 -36.5007 -36.4578  12.2003  14.7941  15.1176  15.7979
    16.5480  16.9701  33.2344  34.1355

          k =-0.1000-0.2000 0.5000 (   786 PWs)   bands (ev):

   -70.5290 -36.6889 -36.5443 -36.4607  13.1393  14.4780  15.0152  16.0964
    16.9810  18.1940  29.1161  32.2424

          k =-0.1000 0.7000-0.4000 (   787 PWs)   bands (ev):

   -70.5179 -36.7383 -36.5726 -36.4604  13.2840  14.6029  14.9048  16.2362
    17.4280  20.1818  25.4484  31.3718

          k =-0.2000 0.2000 0.2000 (   790 PWs)   bands (ev):

   -70.5619 -36.5918 -36.4371 -36.4371  11.3812  14.7465  14.7465  16.3341
    16.3341  16.7109  35.1828  35.1828

          k =-0.2000 0.8000-0.4000 (   775 PWs)   bands (ev):

   -70.5164 -36.7085 -36.6014 -36.4694  13.7654  14.0846  14.8867  16.3662
    17.0784  20.4786  27.5167  28.3885

          k =-0.2000 0.7000-0.3000 (   785 PWs)   bands (ev):

   -70.5116 -36.7071 -36.6351 -36.4711  13.8093  14.3546  14.5166  16.5716
    17.1149  22.7254  24.8882  27.6668

          k =-0.3000 0.3000 0.2000 (   792 PWs)   bands (ev):

   -70.5445 -36.6694 -36.4836 -36.4403  12.7107  14.4410  14.6147  16.3640
    16.4631  17.8200  31.0196  33.5815

          k = 0.6000-0.6000 0.2000 (   790 PWs)   bands (ev):

   -70.5304 -36.7210 -36.5318 -36.4426  13.2348  14.2376  15.3361  16.4602
    16.5340  19.3163  26.9309  32.5431

          k = 0.6000-0.7000 0.3000 (   786 PWs)   bands (ev):

   -70.5319 -36.7005 -36.5200 -36.4658  13.6744  14.2680  14.5228  16.4459
    16.5519  19.4464  29.2819  29.9924

          k = 0.5000-0.5000 0.2000 (   786 PWs)   bands (ev):

   -70.5250 -36.7386 -36.5520 -36.4433  13.2224  14.1669  15.8995  16.5029
    16.5568  20.6150  24.6406  32.1822

          k = 0.5000-0.6000 0.3000 (   786 PWs)   bands (ev):

   -70.5241 -36.6979 -36.5721 -36.4741  13.7476  14.2044  15.0127  16.5271
    16.6018  21.6310  25.8200  28.9309

          k = 0.4000-0.6000 0.4000 (   781 PWs)   bands (ev):

   -70.5216 -36.6385 -36.6385 -36.4854  13.9146  14.5476  14.5476  16.5932
    16.5932  24.3975  24.3975  26.6028

          k = 0.0000 0.0000 0.4000 (   779 PWs)   bands (ev):

   -70.5495 -36.5528 -36.4971 -36.4971  11.9612  15.1216  15.4461  15.4461
    16.0373  16.9531  35.6663  36.3326

          k = 0.0000-0.1000 0.5000 (   786 PWs)   bands (ev):

   -70.5305 -36.6335 -36.5375 -36.5078  12.9724  14.5230  15.3842  15.8255
    16.6910  17.6589  31.6533  34.2441

          k = 0.0000-0.2000 0.6000 (   783 PWs)   bands (ev):

   -70.5151 -36.7099 -36.5700 -36.5037  13.3663  14.2982  15.2237  16.0583
    17.4260  19.4681  27.3948  32.7529

          k = 0.0000 0.7000-0.3000 (   794 PWs)   bands (ev):

   -70.5093 -36.7404 -36.5825 -36.5018  13.3304  14.3637  15.1582  16.0803
    17.7407  21.3112  24.7890  32.1923

          k =-0.1000-0.1000 0.6000 (   785 PWs)   bands (ev):

   -70.5141 -36.6786 -36.5857 -36.5246  13.4966  14.0135  15.4732  16.1457
    17.0947  19.3074  29.8801  30.3748

          k =-0.1000 0.8000-0.3000 (   782 PWs)   bands (ev):

   -70.5039 -36.7117 -36.6202 -36.5242  13.5405  13.8896  15.3120  16.4515
    17.4558  21.8902  26.1528  29.2362

          k =-0.2000 0.8000-0.2000 (   793 PWs)   bands (ev):

   -70.4997 -36.6792 -36.6792 -36.5265  13.6744  13.6744  15.2028  17.0990
    17.0990  24.8003  24.8003  26.6903

          k = 0.6000-0.6000 0.4000 (   781 PWs)   bands (ev):

   -70.5251 -36.6815 -36.5288 -36.5288  14.2029  14.2029  14.4807  16.5532
    16.5532  21.6440  28.2249  28.2249

          k = 0.5000-0.5000 0.4000 (   792 PWs)   bands (ev):

   -70.5226 -36.6453 -36.5831 -36.5325  14.1768  14.1942  14.6872  16.5732
    16.5756  23.9671  25.4168  27.8657

          k = 0.0000 0.0000 0.6000 (   791 PWs)   bands (ev):

   -70.5132 -36.6337 -36.5796 -36.5796  13.3621  14.0071  16.0434  16.0434
    16.7526  18.9288  31.9533  31.9533

          k = 0.0000-0.1000 0.7000 (   786 PWs)   bands (ev):

   -70.4991 -36.6834 -36.6132 -36.5866  13.3939  13.5744  16.1663  16.3953
    17.3330  21.1539  28.4089  30.3185

          k = 0.0000 0.8000-0.2000 (   786 PWs)   bands (ev):

   -70.4938 -36.7088 -36.6259 -36.5831  13.2929  13.4933  16.1475  16.5057
    17.6610  23.5800  25.3798  29.7006

          k =-0.1000 0.9000-0.2000 (   788 PWs)   bands (ev):

   -70.4899 -36.6893 -36.6560 -36.5960  13.2606  13.2690  16.2601  17.0320
    17.4712  23.8329  27.0854  27.6343

          k = 0.0000 0.0000 0.8000 (   792 PWs)   bands (ev):

   -70.4862 -36.6684 -36.6475 -36.6475  13.0963  13.1230  17.0002  17.0002
    17.3440  23.3419  28.5387  28.5387

          k = 0.0000 0.9000-0.1000 (   794 PWs)   bands (ev):

   -70.4813 -36.6837 -36.6608 -36.6493  12.9530  12.9670  17.1281  17.2463
    17.5971  25.8385  26.3991  27.8484

          k = 0.0000 0.0000-1.0000 (   784 PWs)   bands (ev):

   -70.4764 -36.6737 -36.6737 -36.6737  12.7914  12.7914  17.5728  17.5728
    17.5728  27.1209  27.1209  27.1209

 ------ SPIN DOWN ----------


          k = 0.0000 0.0000 0.0000 (   791 PWs)   bands (ev):

   -68.0007 -33.8630 -33.8630 -33.8630   9.2862  17.0891  17.0891  17.0891
    19.1330  19.1330  41.7373  41.7373

          k = 0.0000-0.1000 0.1000 (   781 PWs)   bands (ev):

   -67.9937 -33.9022 -33.8756 -33.8625   9.6892  16.9618  17.0610  17.3194
    19.0018  19.1431  39.6612  41.1848

          k = 0.0000-0.2000 0.2000 (   778 PWs)   bands (ev):

   -67.9753 -34.0046 -33.9095 -33.8625  10.8275  16.6390  16.9089  17.9569
    18.8108  19.1820  35.6157  39.3642

          k = 0.0000-0.3000 0.3000 (   788 PWs)   bands (ev):

   -67.9525 -34.1304 -33.9516 -33.8630  12.4041  16.2596  16.7439  18.8179
    18.8308  19.2561  31.2865  37.3559

          k = 0.0000-0.4000 0.4000 (   802 PWs)   bands (ev):

   -67.9340 -34.2306 -33.9863 -33.8636  13.6235  15.9667  17.2481  18.9294
    19.3391  19.6314  27.5526  35.9504

          k = 0.0000 0.5000-0.5000 (   798 PWs)   bands (ev):

   -67.9269 -34.2684 -33.9990 -33.8634  13.9302  15.8579  17.9992  18.9687
    19.3767  19.9665  25.8048  35.4516

          k =-0.1000-0.1000 0.2000 (   784 PWs)   bands (ev):

   -67.9810 -33.9730 -33.8899 -33.8724  10.4632  16.7977  16.8762  17.7910
    18.8071  19.1979  37.4384  38.5840

          k =-0.1000-0.2000 0.3000 (   785 PWs)   bands (ev):

   -67.9604 -34.0804 -33.9307 -33.8761  11.8557  16.4477  16.6282  18.6055
    18.6993  19.2961  33.5700  36.3592

          k =-0.1000-0.3000 0.4000 (   790 PWs)   bands (ev):

   -67.9397 -34.1839 -33.9767 -33.8776  13.3688  16.1012  16.6087  18.7979
    19.3266  19.6595  29.4303  34.8481

          k =-0.1000 0.6000-0.5000 (   789 PWs)   bands (ev):

   -67.9269 -34.2467 -34.0057 -33.8780  14.0880  15.9053  17.2162  18.9231
    19.4597  20.5347  26.3367  33.9966

          k =-0.2000-0.2000 0.4000 (   787 PWs)   bands (ev):

   -67.9419 -34.1556 -33.9727 -33.8941  13.2946  16.1598  16.3269  18.6762
    19.3018  19.7981  31.6426  32.3398

          k =-0.2000 0.7000-0.5000 (   786 PWs)   bands (ev):

   -67.9269 -34.2031 -34.0266 -33.9011  14.4523  15.9157  16.3617  18.8310
    19.3758  21.1870  28.0255  30.8620

          k =-0.2000 0.6000-0.4000 (   784 PWs)   bands (ev):

   -67.9212 -34.2182 -34.0512 -33.9024  14.7190  15.8851  16.5694  18.9350
    19.3992  22.3636  25.8661  30.4182

          k =-0.3000 0.7000-0.4000 (   780 PWs)   bands (ev):

   -67.9190 -34.1780 -34.0980 -33.9117  15.2181  15.7946  16.1276  19.0113
    19.2764  23.4273  26.5635  27.8621

          k = 0.0000 0.0000 0.2000 (   771 PWs)   bands (ev):

   -67.9868 -33.9130 -33.8884 -33.8884  10.0837  17.0710  17.0710  17.3249
    18.6818  19.2954  38.8636  40.7914

          k = 0.0000-0.1000 0.3000 (   782 PWs)   bands (ev):

   -67.9689 -34.0046 -33.9234 -33.8946  11.1928  16.8422  16.9835  17.8990
    18.3230  19.4186  35.8385  38.6254

          k = 0.0000-0.2000 0.4000 (   778 PWs)   bands (ev):

   -67.9466 -34.1246 -33.9657 -33.8928  12.7240  16.4956  16.7014  18.3849
    18.7790  19.5478  31.5577  36.8747

          k = 0.0000-0.3000 0.5000 (   789 PWs)   bands (ev):

   -67.9286 -34.2210 -34.0006 -33.8917  13.9174  16.2232  16.7889  18.6361
    19.5949  19.9507  27.7265  36.0947

          k = 0.0000 0.6000-0.4000 (   792 PWs)   bands (ev):

   -67.9217 -34.2578 -34.0138 -33.8910  14.2178  16.1215  17.0964  18.6835
    19.9385  20.5497  25.8241  35.5279

          k =-0.1000-0.1000 0.4000 (   788 PWs)   bands (ev):

   -67.9493 -34.0852 -33.9629 -33.9157  12.4886  16.6800  16.8164  18.0726
    18.5378  19.6130  33.8221  34.6538

          k =-0.1000-0.2000 0.5000 (   786 PWs)   bands (ev):

   -67.9297 -34.1729 -34.0110 -33.9190  13.8925  16.2526  16.6526  18.3028
    19.2422  20.1925  29.9070  32.8115

          k =-0.1000 0.7000-0.4000 (   787 PWs)   bands (ev):

   -67.9175 -34.2276 -34.0422 -33.9187  14.6017  16.2491  16.4971  18.5210
    19.6055  21.5536  26.5325  31.9335

          k =-0.2000 0.2000 0.2000 (   790 PWs)   bands (ev):

   -67.9656 -34.0650 -33.8929 -33.8929  11.5409  16.4741  16.4741  18.6200
    19.0355  19.0355  35.5526  35.5526

          k =-0.2000 0.8000-0.4000 (   775 PWs)   bands (ev):

   -67.9159 -34.1943 -34.0747 -33.9284  14.9510  15.8278  16.5278  18.5518
    19.3341  21.9377  28.4006  29.0806

          k =-0.2000 0.7000-0.3000 (   785 PWs)   bands (ev):

   -67.9107 -34.1925 -34.1121 -33.9302  15.3363  15.9537  16.1371  18.7845
    19.3173  23.8204  25.9530  28.4045

          k =-0.3000 0.3000 0.2000 (   792 PWs)   bands (ev):

   -67.9466 -34.1512 -33.9443 -33.8965  13.0593  16.0867  16.1968  18.9975
    19.2267  19.6842  31.6536  33.9807

          k = 0.6000-0.6000 0.2000 (   790 PWs)   bands (ev):

   -67.9311 -34.2086 -33.9974 -33.8993  14.2338  15.8228  16.4274  19.0636
    19.3492  20.9013  27.8367  32.9317

          k = 0.6000-0.7000 0.3000 (   786 PWs)   bands (ev):

   -67.9327 -34.1857 -33.9849 -33.9249  14.4201  15.8191  15.9176  19.1091
    19.3278  21.0780  29.9715  30.6125

          k = 0.5000-0.5000 0.2000 (   786 PWs)   bands (ev):

   -67.9252 -34.2283 -34.0197 -33.9001  14.4767  15.7303  16.8977  19.1044
    19.3923  21.7858  25.8464  32.5612

          k = 0.5000-0.6000 0.3000 (   786 PWs)   bands (ev):

   -67.9242 -34.1828 -34.0427 -33.9342  15.0170  15.6902  16.1760  19.1957
    19.3817  22.8349  26.7556  29.5665

          k = 0.4000-0.6000 0.4000 (   781 PWs)   bands (ev):

   -67.9215 -34.1168 -34.1168 -33.9466  15.3212  15.8628  15.8628  19.3152
    19.3152  25.3313  25.3313  27.4252

          k = 0.0000 0.0000 0.4000 (   779 PWs)   bands (ev):

   -67.9521 -34.0226 -33.9589 -33.9589  12.2017  17.2132  17.2132  17.5055
    17.9535  19.6583  36.0695  36.8697

          k = 0.0000-0.1000 0.5000 (   786 PWs)   bands (ev):

   -67.9314 -34.1116 -34.0033 -33.9711  13.5383  16.5905  17.1354  17.7588
    18.6704  19.9936  32.3277  34.8077

          k = 0.0000-0.2000 0.6000 (   783 PWs)   bands (ev):

   -67.9146 -34.1960 -34.0390 -33.9666  14.5769  16.0828  16.9491  18.1361
    19.5013  21.0552  28.2784  33.2837

          k = 0.0000 0.7000-0.3000 (   794 PWs)   bands (ev):

   -67.9082 -34.2295 -34.0528 -33.9645  14.8546  16.0261  16.8727  18.1873
    19.8657  22.4093  25.9282  32.6951

          k =-0.1000-0.1000 0.6000 (   785 PWs)   bands (ev):

   -67.9135 -34.1611 -34.0566 -33.9894  14.5672  15.9839  17.2408  18.0712
    19.1717  20.9817  30.6417  30.9787

          k =-0.1000 0.8000-0.3000 (   782 PWs)   bands (ev):

   -67.9024 -34.1974 -34.0951 -33.9889  15.1454  15.6301  17.0305  18.4490
    19.5560  23.0408  27.0581  29.8689

          k =-0.2000 0.8000-0.2000 (   793 PWs)   bands (ev):

   -67.8977 -34.1608 -34.1608 -33.9912  15.4315  15.4315  16.8290  19.1564
    19.1564  25.7303  25.7303  27.4265

          k = 0.6000-0.6000 0.4000 (   781 PWs)   bands (ev):

   -67.9253 -34.1647 -33.9950 -33.9950  15.4311  15.6475  15.6475  19.3463
    19.3463  22.9085  28.9173  28.9173

          k = 0.5000-0.5000 0.4000 (   792 PWs)   bands (ev):

   -67.9225 -34.1244 -34.0552 -33.9991  15.4853  15.5988  15.9101  19.3681
    19.4177  24.8912  26.3301  28.5563

          k = 0.0000 0.0000 0.6000 (   791 PWs)   bands (ev):

   -67.9125 -34.1119 -34.0497 -34.0497  14.3974  16.0965  17.8385  17.8385
    18.7537  20.7011  32.4998  32.4998

          k = 0.0000-0.1000 0.7000 (   786 PWs)   bands (ev):

   -67.8972 -34.1659 -34.0868 -34.0580  14.9050  15.4999  17.9924  18.2653
    19.3971  22.3283  29.0862  30.8032

          k = 0.0000 0.8000-0.2000 (   786 PWs)   bands (ev):

   -67.8914 -34.1937 -34.1008 -34.0542  15.0865  15.2390  17.9765  18.3902
    19.7763  24.4287  26.2442  30.1422

          k =-0.1000 0.9000-0.2000 (   788 PWs)   bands (ev):

   -67.8872 -34.1718 -34.1345 -34.0681  15.0041  15.1148  18.0705  19.0071
    19.5497  24.6620  27.7480  28.1740

          k = 0.0000 0.0000 0.8000 (   792 PWs)   bands (ev):

   -67.8832 -34.1487 -34.1248 -34.1248  14.8095  15.0114  18.9468  18.9468
    19.4192  24.1045  28.9233  28.9233

          k = 0.0000 0.9000-0.1000 (   794 PWs)   bands (ev):

   -67.8778 -34.1651 -34.1395 -34.1269  14.7675  14.7847  19.1243  19.2491
    19.7047  26.3483  26.8723  28.1624

          k = 0.0000 0.0000-1.0000 (   784 PWs)   bands (ev):

   -67.8725 -34.1538 -34.1538 -34.1538  14.6113  14.6113  19.6774  19.6774
    19.6774  27.3410  27.3410  27.3410

     the Fermi energy is    17.4445 ev

!    total energy              =    -329.26720258 Ry
     total all-electron energy =     -2545.563738 Ry
     estimated scf accuracy    <          1.4E-11 Ry
     smearing contrib. (-TS)   =       0.00103340 Ry
     internal energy E=F+TS    =    -329.26823598 Ry

     The total energy is F=E-TS. E is the sum of the following terms:
     one-electron contribution =    -112.87026797 Ry
     hartree contribution      =      66.53682715 Ry
     xc contribution           =     -34.79506156 Ry
     ewald contribution        =    -171.98836291 Ry
     one-center paw contrib.   =     -76.15137069 Ry

     total magnetization       =     2.12 Bohr mag/cell
     absolute magnetization    =     2.27 Bohr mag/cell

     convergence has been achieved in  12 iterations

     negative rho (up, down):  0.000E+00 3.778E-05

     Forces acting on atoms (cartesian axes, Ry/au):

     atom    1 type  1   force =     0.00000000    0.00000000    0.00000000

     Total force =     0.000000     Total SCF correction =     0.000000


     Computing stress (Cartesian axis) and pressure


     negative rho (up, down):  0.000E+00 3.778E-05
          total   stress  (Ry/bohr**3)                   (kbar)     P=     -111.04
  -0.00075485   0.00000000  -0.00000000         -111.04        0.00       -0.00
   0.00000000  -0.00075485   0.00000000            0.00     -111.04        0.00
  -0.00000000   0.00000000  -0.00075485           -0.00        0.00     -111.04


     Writing all to output data dir ./work/fe_fm_k10/fe_fm_k10.save/ :
     XML data file, charge density, pseudopotentials, collected wavefunctions

     init_run     :      0.93s CPU      1.02s WALL (       1 calls)
     electrons    :     12.82s CPU     14.45s WALL (       1 calls)
     forces       :      0.19s CPU      0.23s WALL (       1 calls)
     stress       :      0.92s CPU      1.02s WALL (       1 calls)

     Called by init_run:
     wfcinit      :      0.25s CPU      0.25s WALL (       1 calls)
     potinit      :      0.30s CPU      0.35s WALL (       1 calls)
     hinit0       :      0.31s CPU      0.32s WALL (       1 calls)

     Called by electrons:
     c_bands      :      6.88s CPU      7.03s WALL (      13 calls)
     sum_band     :      2.21s CPU      2.67s WALL (      13 calls)
     v_of_rho     :      0.51s CPU      0.59s WALL (      13 calls)
     newd         :      0.70s CPU      1.16s WALL (      13 calls)
     PAW_pot      :      2.74s CPU      3.30s WALL (      13 calls)
     mix_rho      :      0.04s CPU      0.04s WALL (      13 calls)

     Called by c_bands:
     init_us_2    :      0.23s CPU      0.24s WALL (    2726 calls)
     cegterg      :      6.55s CPU      6.69s WALL (    1222 calls)

     Called by *egterg:
     cdiaghg      :      0.30s CPU      0.31s WALL (    4222 calls)
     h_psi        :      3.92s CPU      4.01s WALL (    4410 calls)
     s_psi        :      0.43s CPU      0.44s WALL (    4410 calls)
     g_psi        :      0.04s CPU      0.04s WALL (    3094 calls)

     Called by h_psi:
     h_psi:calbec :      0.42s CPU      0.44s WALL (    4410 calls)
     vloc_psi     :      3.03s CPU      3.09s WALL (    4410 calls)
                                        0.00s GPU  (    4410 calls)
     add_vuspsi   :      0.43s CPU      0.44s WALL (    4410 calls)

     General routines
     calbec       :      0.81s CPU      0.83s WALL (    7230 calls)
     fft          :      0.26s CPU      0.27s WALL (     365 calls)
     ffts         :      0.03s CPU      0.03s WALL (      52 calls)
     fftw         :      2.98s CPU      3.05s WALL (   87910 calls)
     interpolate  :      0.05s CPU      0.05s WALL (      26 calls)

     Parallel routines

     PWSCF        :     14.92s CPU     16.80s WALL


   This run was terminated on:   2:28:43   5Aug2026            

=------------------------------------------------------------------------------=
   JOB DONE.
=------------------------------------------------------------------------------=
