
     Program PWSCF v.7.5 starts on  5Aug2026 at  2:28:13 

     This program is part of the open-source Quantum ESPRESSO suite
     for quantum simulation of materials; please cite
         "P. Giannozzi et al., J. Phys.:Condens. Matter 21 395502 (2009);
         "P. Giannozzi et al., J. Phys.:Condens. Matter 29 465901 (2017);
         "P. Giannozzi et al., J. Chem. Phys. 152 154105 (2020);
          URL http://www.quantum-espresso.org", 
     in publications or presentations arising from this work. More details at
     http://www.quantum-espresso.org/quote

     Parallel version (MPI), running on     1 processors

     MPI processes distributed on     1 nodes
     4912 MiB available memory on the printing compute node when the environment starts

     Reading input from input/fm-k8.scf.in

     Current dimensions of program PWSCF are:
     Max number of different atomic species (ntypx) = 10
     Max number of k-points (npk) =  40000
     Max angular momentum in pseudopotentials (lmaxx) =  4
     file Fe.pbe-spn-kjpaw_psl.0.2.1.UPF: wavefunction(s)  3D renormalized

     Subspace diagonalization in iterative solution of the eigenvalue problem:
     a serial algorithm will be used


     G-vector sticks info
     --------------------
     sticks:   dense  smooth     PW     G-vecs:    dense   smooth      PW
     Sum        1383     467    151                32565     6363    1157

     Using Slab Decomposition



     bravais-lattice index     =            3
     lattice parameter (alat)  =       5.4169  a.u.
     unit-cell volume          =      79.4735 (a.u.)^3
     number of atoms/cell      =            1
     number of atomic types    =            1
     number of electrons       =        16.00
     number of Kohn-Sham states=           12
     kinetic-energy cutoff     =      70.0000  Ry
     charge density cutoff     =     840.0000  Ry
     scf convergence threshold =      1.0E-10
     mixing beta               =       0.7000
     number of iterations used =            8  plain     mixing
     Exchange-correlation= SLA  PW   PBX  PBC
                           (   1   4   3   4   0   0   0)

     celldm(1)=   5.416900  celldm(2)=   0.000000  celldm(3)=   0.000000
     celldm(4)=   0.000000  celldm(5)=   0.000000  celldm(6)=   0.000000

     crystal axes: (cart. coord. in units of alat)
               a(1) = (   0.500000   0.500000   0.500000 )  
               a(2) = (  -0.500000   0.500000   0.500000 )  
               a(3) = (  -0.500000  -0.500000   0.500000 )  

     reciprocal axes: (cart. coord. in units 2 pi/alat)
               b(1) = (  1.000000  0.000000  1.000000 )  
               b(2) = ( -1.000000  1.000000  0.000000 )  
               b(3) = (  0.000000 -1.000000  1.000000 )  


     PseudoPot. # 1 for Fe read from file:
     ./pseudo/Fe.pbe-spn-kjpaw_psl.0.2.1.UPF
     MD5 check sum: e86618425769142926afa95317d90200
     Pseudo is Projector augmented-wave + core cor, Zval = 16.0
     Generated using "atomic" code by A. Dal Corso  v.5.0.99 svn rev. 10869
     Shape of augmentation charge: PSQ
     Using radial grid of 1191 points,  6 beta functions with: 
                l(1) =   0
                l(2) =   0
                l(3) =   1
                l(4) =   1
                l(5) =   2
                l(6) =   2
     Q(r) pseudized with 0 coefficients 


     atomic species   valence    mass     pseudopotential
     Fe               16.00    55.84500     Fe( 1.00)

     Starting magnetic structure 
     atomic species   magnetization
     Fe              0.200

     48 Sym. Ops., with inversion, found



   Cartesian axes

     site n.     atom                  positions (alat units)
         1        Fe     tau(   1) = (   0.0000000   0.0000000   0.0000000  )

     number of k points=    29  Marzari-Vanderbilt smearing, width (Ry)=  0.0200
                       cart. coord. in units 2pi/alat
        k(    1) = (   0.0000000   0.0000000   0.0000000), wk =   0.0019531
        k(    2) = (   0.0000000  -0.1250000   0.1250000), wk =   0.0234375
        k(    3) = (   0.0000000  -0.2500000   0.2500000), wk =   0.0234375
        k(    4) = (   0.0000000  -0.3750000   0.3750000), wk =   0.0234375
        k(    5) = (   0.0000000   0.5000000  -0.5000000), wk =   0.0117188
        k(    6) = (  -0.1250000  -0.1250000   0.2500000), wk =   0.0468750
        k(    7) = (  -0.1250000  -0.2500000   0.3750000), wk =   0.0937500
        k(    8) = (  -0.1250000   0.6250000  -0.5000000), wk =   0.0937500
        k(    9) = (  -0.2500000   0.7500000  -0.5000000), wk =   0.0468750
        k(   10) = (  -0.2500000   0.6250000  -0.3750000), wk =   0.0468750
        k(   11) = (   0.0000000   0.0000000   0.2500000), wk =   0.0117188
        k(   12) = (   0.0000000  -0.1250000   0.3750000), wk =   0.0468750
        k(   13) = (   0.0000000  -0.2500000   0.5000000), wk =   0.0468750
        k(   14) = (   0.0000000   0.6250000  -0.3750000), wk =   0.0234375
        k(   15) = (  -0.1250000  -0.1250000   0.5000000), wk =   0.0468750
        k(   16) = (  -0.1250000   0.7500000  -0.3750000), wk =   0.0937500
        k(   17) = (  -0.2500000   0.2500000   0.2500000), wk =   0.0156250
        k(   18) = (  -0.2500000   0.7500000  -0.2500000), wk =   0.0156250
        k(   19) = (   0.6250000  -0.6250000   0.2500000), wk =   0.0468750
        k(   20) = (   0.5000000  -0.5000000   0.2500000), wk =   0.0234375
        k(   21) = (   0.5000000  -0.6250000   0.3750000), wk =   0.0468750
        k(   22) = (   0.0000000   0.0000000   0.5000000), wk =   0.0117188
        k(   23) = (   0.0000000  -0.1250000   0.6250000), wk =   0.0468750
        k(   24) = (   0.0000000   0.7500000  -0.2500000), wk =   0.0234375
        k(   25) = (  -0.1250000   0.8750000  -0.2500000), wk =   0.0468750
        k(   26) = (   0.5000000  -0.5000000   0.5000000), wk =   0.0039062
        k(   27) = (   0.0000000   0.0000000   0.7500000), wk =   0.0117188
        k(   28) = (   0.0000000   0.8750000  -0.1250000), wk =   0.0234375
        k(   29) = (   0.0000000   0.0000000  -1.0000000), wk =   0.0019531

     Dense  grid:    32565 G-vectors     FFT dimensions: (  45,  45,  45)

     Smooth grid:     6363 G-vectors     FFT dimensions: (  25,  25,  25)

     Estimated max dynamical RAM per process >     144.67 MB

     Check: negative core charge=   -0.000012
     Generating pointlists ...
     new r_m :   0.3572 (alat units)  1.9351 (a.u.) for type    1

     Initial potential from superposition of free atoms

     starting charge      15.9996, renormalised to      16.0000
     Starting wfcs are   13 randomized atomic wfcs
     Checking if some PAW data can be deallocated... 

     total cpu time spent up to now is        1.0 secs

     per-process dynamical memory:    40.1 Mb

     Self-consistent Calculation

     iteration #  1     ecut=    70.00 Ry     beta= 0.70
     Davidson diagonalization with overlap
     ethr =  1.00E-02,  avg # of iterations =  3.1

     Threshold (ethr) on eigenvalues was too large:
     Diagonalizing with lowered threshold

     Davidson diagonalization with overlap
     ethr =  1.48E-04,  avg # of iterations =  3.8

     negative rho (up, down):  0.000E+00 2.503E-05

     total cpu time spent up to now is        2.5 secs

     total energy              =    -329.25360725 Ry
     estimated scf accuracy    <       0.02363068 Ry

     total magnetization       =     2.57 Bohr mag/cell
     absolute magnetization    =     2.59 Bohr mag/cell

     iteration #  2     ecut=    70.00 Ry     beta= 0.70
     Davidson diagonalization with overlap
     ethr =  1.48E-04,  avg # of iterations =  2.0

     negative rho (up, down):  0.000E+00 3.242E-05

     total cpu time spent up to now is        3.4 secs

     total energy              =    -329.25403212 Ry
     estimated scf accuracy    <       0.03624247 Ry

     total magnetization       =     2.56 Bohr mag/cell
     absolute magnetization    =     2.61 Bohr mag/cell

     iteration #  3     ecut=    70.00 Ry     beta= 0.70
     Davidson diagonalization with overlap
     ethr =  1.48E-04,  avg # of iterations =  2.1

     negative rho (up, down):  0.000E+00 4.977E-05

     total cpu time spent up to now is        4.3 secs

     total energy              =    -329.26480493 Ry
     estimated scf accuracy    <       0.00472152 Ry

     total magnetization       =     2.38 Bohr mag/cell
     absolute magnetization    =     2.49 Bohr mag/cell

     iteration #  4     ecut=    70.00 Ry     beta= 0.70
     Davidson diagonalization with overlap
     ethr =  2.95E-05,  avg # of iterations =  1.7

     negative rho (up, down):  0.000E+00 4.418E-05

     total cpu time spent up to now is        5.1 secs

     total energy              =    -329.26591953 Ry
     estimated scf accuracy    <       0.00033446 Ry

     total magnetization       =     2.29 Bohr mag/cell
     absolute magnetization    =     2.44 Bohr mag/cell

     iteration #  5     ecut=    70.00 Ry     beta= 0.70
     Davidson diagonalization with overlap
     ethr =  2.09E-06,  avg # of iterations =  3.6

     negative rho (up, down):  0.000E+00 4.287E-05

     total cpu time spent up to now is        6.1 secs

     total energy              =    -329.26607750 Ry
     estimated scf accuracy    <       0.00001628 Ry

     total magnetization       =     2.26 Bohr mag/cell
     absolute magnetization    =     2.41 Bohr mag/cell

     iteration #  6     ecut=    70.00 Ry     beta= 0.70
     Davidson diagonalization with overlap
     ethr =  1.02E-07,  avg # of iterations =  3.5

     negative rho (up, down):  0.000E+00 4.267E-05

     total cpu time spent up to now is        7.1 secs

     total energy              =    -329.26610226 Ry
     estimated scf accuracy    <       0.00000155 Ry

     total magnetization       =     2.25 Bohr mag/cell
     absolute magnetization    =     2.40 Bohr mag/cell

     iteration #  7     ecut=    70.00 Ry     beta= 0.70
     Davidson diagonalization with overlap
     ethr =  9.67E-09,  avg # of iterations =  3.3

     negative rho (up, down):  0.000E+00 4.271E-05

     total cpu time spent up to now is        8.0 secs

     total energy              =    -329.26610687 Ry
     estimated scf accuracy    <       0.00000129 Ry

     total magnetization       =     2.25 Bohr mag/cell
     absolute magnetization    =     2.39 Bohr mag/cell

     iteration #  8     ecut=    70.00 Ry     beta= 0.70
     Davidson diagonalization with overlap
     ethr =  8.04E-09,  avg # of iterations =  2.0

     negative rho (up, down):  0.000E+00 4.263E-05

     total cpu time spent up to now is        8.9 secs

     total energy              =    -329.26610733 Ry
     estimated scf accuracy    <       0.00000011 Ry

     total magnetization       =     2.25 Bohr mag/cell
     absolute magnetization    =     2.39 Bohr mag/cell

     iteration #  9     ecut=    70.00 Ry     beta= 0.70
     Davidson diagonalization with overlap
     ethr =  6.76E-10,  avg # of iterations =  2.5

     negative rho (up, down):  0.000E+00 4.263E-05

     total cpu time spent up to now is        9.9 secs

     total energy              =    -329.26610739 Ry
     estimated scf accuracy    <       0.00000004 Ry

     total magnetization       =     2.25 Bohr mag/cell
     absolute magnetization    =     2.39 Bohr mag/cell

     iteration # 10     ecut=    70.00 Ry     beta= 0.70
     Davidson diagonalization with overlap
     ethr =  2.23E-10,  avg # of iterations =  1.8

     negative rho (up, down):  0.000E+00 4.263E-05

     total cpu time spent up to now is       10.7 secs

     total energy              =    -329.26610739 Ry
     estimated scf accuracy    <          1.5E-09 Ry

     total magnetization       =     2.25 Bohr mag/cell
     absolute magnetization    =     2.39 Bohr mag/cell

     iteration # 11     ecut=    70.00 Ry     beta= 0.70
     Davidson diagonalization with overlap
     ethr =  9.17E-12,  avg # of iterations =  3.3

     negative rho (up, down):  0.000E+00 4.263E-05

     Magnetic moment per site  (integrated on atomic sphere of radius R)
     atom   1 (R=0.357)  charge= 14.4200  magn=  2.3101

     total cpu time spent up to now is       11.7 secs

     End of self-consistent calculation

 ------ SPIN UP ------------


          k = 0.0000 0.0000 0.0000 (   791 PWs)   bands (ev):

   -70.6157 -36.4327 -36.4327 -36.4327   9.1731  15.2134  15.2134  15.2134
    16.3794  16.3794  42.0517  42.0517

          k = 0.0000-0.1250 0.1250 (   778 PWs)   bands (ev):

   -70.6057 -36.4864 -36.4503 -36.4322   9.7930  15.0532  15.1859  15.5383
    16.2486  16.3937  38.5843  40.9364

          k = 0.0000-0.2500 0.2500 (   784 PWs)   bands (ev):

   -70.5819 -36.6165 -36.4941 -36.4325  11.3909  14.6801  15.0827  16.2248
    16.3839  16.4441  32.8406  38.2869

          k = 0.0000-0.3750 0.3750 (   790 PWs)   bands (ev):

   -70.5581 -36.7447 -36.5381 -36.4324  12.5849  14.3248  16.0549  16.5145
    16.5182  17.3412  27.4296  36.2266

          k = 0.0000 0.5000-0.5000 (   798 PWs)   bands (ev):

   -70.5482 -36.7973 -36.5566 -36.4327  12.6933  14.1824  16.4369  16.5563
    17.7815  17.9579  24.4688  35.4811

          k =-0.1250-0.1250 0.2500 (   783 PWs)   bands (ev):

   -70.5889 -36.5759 -36.4712 -36.4453  10.9303  14.8779  14.9162  16.1136
    16.2153  16.4871  35.5723  36.6962

          k =-0.1250-0.2500 0.3750 (   792 PWs)   bands (ev):

   -70.5651 -36.6911 -36.5239 -36.4507  12.5398  14.4914  14.9083  16.2160
    16.6044  17.4403  30.2923  34.0841

          k =-0.1250 0.6250-0.5000 (   785 PWs)   bands (ev):

   -70.5481 -36.7681 -36.5660 -36.4516  12.9908  14.2636  15.7164  16.4026
    16.9310  19.2015  25.5338  32.8145

          k =-0.2500 0.7500-0.5000 (   784 PWs)   bands (ev):

   -70.5481 -36.7304 -36.5854 -36.4704  13.5374  14.2331  14.8446  16.3397
    16.7548  19.6558  28.1841  29.0057

          k =-0.2500 0.6250-0.3750 (   782 PWs)   bands (ev):

   -70.5411 -36.7293 -36.6321 -36.4747  13.6629  14.2804  14.8708  16.4981
    16.8189  22.2019  24.7739  28.0555

          k = 0.0000 0.0000 0.2500 (   771 PWs)   bands (ev):

   -70.5962 -36.4995 -36.4685 -36.4685  10.3846  15.2397  15.2397  15.5400
    15.8534  16.5843  37.9185  39.6923

          k = 0.0000-0.1250 0.3750 (   786 PWs)   bands (ev):

   -70.5734 -36.6127 -36.5136 -36.4756  11.8796  14.9895  14.9991  15.8005
    16.3106  16.8282  33.2777  37.1566

          k = 0.0000-0.2500 0.5000 (   789 PWs)   bands (ev):

   -70.5504 -36.7329 -36.5585 -36.4729  12.9620  14.6876  14.9488  16.1798
    17.2878  17.9065  27.8016  35.1100

          k = 0.0000 0.6250-0.3750 (   792 PWs)   bands (ev):

   -70.5408 -36.7828 -36.5772 -36.4712  13.0236  14.5604  15.2311  16.1886
    17.7434  19.7449  24.5673  34.2805

          k =-0.1250-0.1250 0.5000 (   784 PWs)   bands (ev):

   -70.5513 -36.6887 -36.5677 -36.4986  13.1205  14.3938  15.1413  15.9252
    16.8450  17.9811  30.8705  31.5207

          k =-0.1250 0.7500-0.3750 (   784 PWs)   bands (ev):

   -70.5356 -36.7449 -36.6172 -36.5003  13.5095  14.3427  14.8612  16.2605
    17.2902  20.6778  26.0858  29.9302

          k =-0.2500 0.2500 0.2500 (   784 PWs)   bands (ev):

   -70.5711 -36.6714 -36.4762 -36.4762  12.3786  14.4858  14.4858  16.3951
    16.3951  17.4794  33.1860  33.1860

          k =-0.2500 0.7500-0.2500 (   787 PWs)   bands (ev):

   -70.5296 -36.6991 -36.6991 -36.5055  14.0305  14.0305  14.5052  16.8802
    16.8802  24.3144  24.3144  26.5689

          k = 0.6250-0.6250 0.2500 (   787 PWs)   bands (ev):

   -70.5533 -36.7287 -36.5443 -36.4819  13.4807  14.2043  14.7761  16.4651
    16.5351  19.3703  28.1345  31.6215

          k = 0.5000-0.5000 0.2500 (   784 PWs)   bands (ev):

   -70.5459 -36.7416 -36.5832 -36.4838  13.4451  14.1106  15.4925  16.5243
    16.5731  21.3788  24.7355  31.0742

          k = 0.5000-0.6250 0.3750 (   781 PWs)   bands (ev):

   -70.5450 -36.6988 -36.6031 -36.5162  13.9135  14.2658  14.6956  16.5528
    16.5976  22.3267  26.4445  27.5090

          k = 0.0000 0.0000 0.5000 (   771 PWs)   bands (ev):

   -70.5525 -36.6208 -36.5600 -36.5600  12.9125  14.5723  15.6403  15.6403
    16.3456  17.6058  34.0558  34.0558

          k = 0.0000-0.1250 0.6250 (   782 PWs)   bands (ev):

   -70.5318 -36.7047 -36.6075 -36.5690  13.4559  13.9552  15.6545  16.0608
    17.1681  19.6503  28.8923  31.7722

          k = 0.0000 0.7500-0.2500 (   782 PWs)   bands (ev):

   -70.5231 -36.7469 -36.6266 -36.5648  13.3876  13.8947  15.5856  16.1676
    17.6520  22.4294  25.0159  30.8745

          k =-0.1250 0.8750-0.2500 (   779 PWs)   bands (ev):

   -70.5179 -36.7179 -36.6684 -36.5832  13.4889  13.4940  15.7089  16.7720
    17.3618  22.8267  27.1084  27.7963

          k = 0.5000-0.5000 0.5000 (   784 PWs)   bands (ev):

   -70.5437 -36.6107 -36.6107 -36.6107  14.3264  14.3264  14.3264  16.5900
    16.5900  25.8406  25.8406  25.8406

          k = 0.0000 0.0000 0.7500 (   783 PWs)   bands (ev):

   -70.5131 -36.6854 -36.6560 -36.6560  13.2303  13.3102  16.7080  16.7080
    17.1745  22.1041  29.2421  29.2421

          k = 0.0000 0.8750-0.1250 (   790 PWs)   bands (ev):

   -70.5054 -36.7114 -36.6761 -36.6586  13.0423  13.0740  16.8631  17.0331
    17.5615  25.2966  26.1085  28.2165

          k = 0.0000 0.0000-1.0000 (   784 PWs)   bands (ev):

   -70.4980 -36.6964 -36.6964 -36.6964  12.7998  12.7998  17.5242  17.5242
    17.5242  27.1103  27.1103  27.1103

 ------ SPIN DOWN ----------


          k = 0.0000 0.0000 0.0000 (   791 PWs)   bands (ev):

   -67.8815 -33.7474 -33.7474 -33.7474   9.2936  17.2096  17.2096  17.2096
    19.1893  19.1893  41.7322  41.7322

          k = 0.0000-0.1250 0.1250 (   778 PWs)   bands (ev):

   -67.8706 -33.8076 -33.7668 -33.7469   9.9191  17.0130  17.1553  17.5674
    19.0016  19.2062  38.7504  40.8193

          k = 0.0000-0.2500 0.2500 (   784 PWs)   bands (ev):

   -67.8445 -33.9531 -33.8151 -33.7473  11.6062  16.5600  16.8904  18.5078
    18.8565  19.2731  33.4609  38.3098

          k = 0.0000-0.3750 0.3750 (   790 PWs)   bands (ev):

   -67.8182 -34.0961 -33.8634 -33.7474  13.4424  16.1344  17.0723  18.9827
    19.3800  19.5948  28.4301  36.2167

          k = 0.0000 0.5000-0.5000 (   798 PWs)   bands (ev):

   -67.8074 -34.1546 -33.8838 -33.7478  13.9845  15.9652  18.0043  19.0473
    19.4372  20.1056  25.8792  35.4417

          k =-0.1250-0.1250 0.2500 (   783 PWs)   bands (ev):

   -67.8522 -33.9075 -33.7900 -33.7615  11.0889  16.7742  16.8402  18.2881
    18.7757  19.3072  35.9695  37.0860

          k =-0.1250-0.2500 0.3750 (   792 PWs)   bands (ev):

   -67.8259 -34.0360 -33.8483 -33.7676  12.9958  16.3151  16.5500  18.7875
    19.3348  19.5925  31.0521  34.5410

          k =-0.1250 0.6250-0.5000 (   785 PWs)   bands (ev):

   -67.8074 -34.1220 -33.8947 -33.7688  14.2218  16.0280  16.9926  18.9790
    19.5168  20.8451  26.7120  33.2610

          k =-0.2500 0.7500-0.5000 (   784 PWs)   bands (ev):

   -67.8074 -34.0797 -33.9173 -33.7893  14.5882  15.9356  16.3518  18.8924
    19.4378  21.3686  29.0456  29.7244

          k =-0.2500 0.6250-0.3750 (   782 PWs)   bands (ev):

   -67.7997 -34.0783 -33.9693 -33.7941  15.1248  15.9443  16.3093  19.0725
    19.4019  23.3866  25.9454  28.8099

          k = 0.0000 0.0000 0.2500 (   771 PWs)   bands (ev):

   -67.8602 -33.8228 -33.7870 -33.7870  10.5220  17.1950  17.1950  17.5742
    18.4921  19.4321  38.0362  40.0372

          k = 0.0000-0.1250 0.3750 (   786 PWs)   bands (ev):

   -67.8351 -33.9488 -33.8367 -33.7951  12.1347  16.9000  16.9641  18.1713
    18.4238  19.6128  33.8938  37.4012

          k = 0.0000-0.2500 0.5000 (   789 PWs)   bands (ev):

   -67.8099 -34.0826 -33.8862 -33.7923  13.8893  16.5272  16.6142  18.5377
    19.5325  20.0553  28.7552  35.7129

          k = 0.0000 0.6250-0.3750 (   792 PWs)   bands (ev):

   -67.7994 -34.1380 -33.9066 -33.7906  14.4174  16.3760  16.8322  18.6301
    20.0624  21.0295  25.9087  34.8507

          k =-0.1250-0.1250 0.5000 (   784 PWs)   bands (ev):

   -67.8109 -34.0332 -33.8969 -33.8205  13.7798  16.3653  16.9618  18.1621
    19.1799  20.1762  31.6469  32.1578

          k =-0.1250 0.7500-0.3750 (   784 PWs)   bands (ev):

   -67.7937 -34.0955 -33.9519 -33.8223  14.9300  16.0415  16.6658  18.5546
    19.6110  22.1048  27.1288  30.6135

          k =-0.2500 0.2500 0.2500 (   784 PWs)   bands (ev):

   -67.8326 -34.0139 -33.7959 -33.7959  12.6400  16.2918  16.2918  19.1579
    19.1579  19.5349  33.6855  33.6855

          k =-0.2500 0.7500-0.2500 (   787 PWs)   bands (ev):

   -67.7871 -34.0437 -34.0437 -33.8278  15.7425  15.7425  16.1783  19.1775
    19.1775  25.3851  25.3851  27.4420

          k = 0.6250-0.6250 0.2500 (   787 PWs)   bands (ev):

   -67.8130 -34.0779 -33.8716 -33.8025  14.3883  15.9102  16.1376  19.1902
    19.3866  21.1338  28.9708  32.1345

          k = 0.5000-0.5000 0.2500 (   784 PWs)   bands (ev):

   -67.8049 -34.0924 -33.9146 -33.8048  14.8031  15.7789  16.6488  19.2432
    19.4600  22.5806  25.9667  31.5809

          k = 0.5000-0.6250 0.3750 (   781 PWs)   bands (ev):

   -67.8039 -34.0445 -33.9376 -33.8407  15.3619  15.7778  15.9930  19.3452
    19.4459  23.5747  27.3283  28.2975

          k = 0.0000 0.0000 0.5000 (   771 PWs)   bands (ev):

   -67.8123 -33.9584 -33.8881 -33.8881  13.4477  16.8336  17.5681  17.5681
    18.4785  20.0364  34.6844  34.6844

          k = 0.0000-0.1250 0.6250 (   782 PWs)   bands (ev):

   -67.7896 -34.0506 -33.9405 -33.8987  14.6918  15.9369  17.5867  18.1201
    19.3953  21.2472  29.6948  32.3587

          k = 0.0000 0.7500-0.2500 (   782 PWs)   bands (ev):

   -67.7801 -34.0971 -33.9617 -33.8941  15.1105  15.6223  17.5087  18.2520
    19.9588  23.4454  26.1075  31.4086

          k =-0.1250 0.8750-0.2500 (   779 PWs)   bands (ev):

   -67.7745 -34.0644 -34.0086 -33.9140  15.1743  15.3744  17.6003  18.8994
    19.6138  23.8765  27.9319  28.4669

          k = 0.5000-0.5000 0.5000 (   784 PWs)   bands (ev):

   -67.8024 -33.9463 -33.9463 -33.9463  15.7592  15.7592  15.7592  19.4829
    19.4829  26.7247  26.7247  26.7247

          k = 0.0000 0.0000 0.7500 (   783 PWs)   bands (ev):

   -67.7693 -34.0286 -33.9944 -33.9944  14.8729  15.2611  18.7724  18.7724
    19.4164  23.0901  29.7309  29.7309

          k = 0.0000 0.8750-0.1250 (   790 PWs)   bands (ev):

   -67.7608 -34.0563 -34.0167 -33.9974  14.8854  14.8991  18.9878  19.1630
    19.8564  25.9321  26.7290  28.6105

          k = 0.0000 0.0000-1.0000 (   784 PWs)   bands (ev):

   -67.7528 -34.0392 -34.0392 -34.0392  14.6415  14.6415  19.8143  19.8143
    19.8143  27.3630  27.3630  27.3630

     the Fermi energy is    17.4646 ev

!    total energy              =    -329.26610739 Ry
     total all-electron energy =     -2545.562643 Ry
     estimated scf accuracy    <          1.9E-11 Ry
     smearing contrib. (-TS)   =       0.00049058 Ry
     internal energy E=F+TS    =    -329.26659797 Ry

     The total energy is F=E-TS. E is the sum of the following terms:
     one-electron contribution =    -112.89301687 Ry
     hartree contribution      =      66.57696276 Ry
     xc contribution           =     -34.81118192 Ry
     ewald contribution        =    -171.98836291 Ry
     one-center paw contrib.   =     -76.15099903 Ry

     total magnetization       =     2.25 Bohr mag/cell
     absolute magnetization    =     2.39 Bohr mag/cell

     convergence has been achieved in  11 iterations

     negative rho (up, down):  0.000E+00 4.263E-05

     Forces acting on atoms (cartesian axes, Ry/au):

     atom    1 type  1   force =     0.00000000    0.00000000    0.00000000

     Total force =     0.000000     Total SCF correction =     0.000000


     Computing stress (Cartesian axis) and pressure


     negative rho (up, down):  0.000E+00 4.263E-05
          total   stress  (Ry/bohr**3)                   (kbar)     P=      -83.49
  -0.00056754  -0.00000000   0.00000000          -83.49       -0.00        0.00
  -0.00000000  -0.00056754  -0.00000000           -0.00      -83.49       -0.00
   0.00000000  -0.00000000  -0.00056754            0.00       -0.00      -83.49


     Writing all to output data dir ./work/fe_fm_k8/fe_fm_k8.save/ :
     XML data file, charge density, pseudopotentials, collected wavefunctions

     init_run     :      0.84s CPU      0.96s WALL (       1 calls)
     electrons    :      9.24s CPU     10.68s WALL (       1 calls)
     forces       :      0.17s CPU      0.21s WALL (       1 calls)
     stress       :      0.77s CPU      0.90s WALL (       1 calls)

     Called by init_run:
     wfcinit      :      0.16s CPU      0.16s WALL (       1 calls)
     potinit      :      0.31s CPU      0.37s WALL (       1 calls)
     hinit0       :      0.32s CPU      0.32s WALL (       1 calls)

     Called by electrons:
     c_bands      :      4.04s CPU      4.15s WALL (      12 calls)
     sum_band     :      1.75s CPU      2.17s WALL (      12 calls)
     v_of_rho     :      0.49s CPU      0.54s WALL (      12 calls)
     newd         :      0.67s CPU      1.06s WALL (      12 calls)
     PAW_pot      :      2.52s CPU      3.08s WALL (      12 calls)
     mix_rho      :      0.03s CPU      0.03s WALL (      12 calls)

     Called by c_bands:
     init_us_2    :      0.13s CPU      0.14s WALL (    1566 calls)
     cegterg      :      3.86s CPU      3.96s WALL (     696 calls)

     Called by *egterg:
     cdiaghg      :      0.18s CPU      0.19s WALL (    2526 calls)
     h_psi        :      2.29s CPU      2.36s WALL (    2642 calls)
     s_psi        :      0.25s CPU      0.26s WALL (    2642 calls)
     g_psi        :      0.02s CPU      0.02s WALL (    1888 calls)

     Called by h_psi:
     h_psi:calbec :      0.25s CPU      0.26s WALL (    2642 calls)
     vloc_psi     :      1.78s CPU      1.83s WALL (    2642 calls)
                                        0.00s GPU  (    2642 calls)
     add_vuspsi   :      0.25s CPU      0.26s WALL (    2642 calls)

     General routines
     calbec       :      0.48s CPU      0.49s WALL (    4324 calls)
     fft          :      0.24s CPU      0.25s WALL (     340 calls)
     ffts         :      0.03s CPU      0.03s WALL (      48 calls)
     fftw         :      1.76s CPU      1.81s WALL (   51176 calls)
     interpolate  :      0.04s CPU      0.05s WALL (      24 calls)

     Parallel routines

     PWSCF        :     11.08s CPU     12.81s WALL


   This run was terminated on:   2:28:25   5Aug2026            

=------------------------------------------------------------------------------=
   JOB DONE.
=------------------------------------------------------------------------------=
