
     Program PWSCF v.7.5 starts on  5Aug2026 at  2:28:43 

     This program is part of the open-source Quantum ESPRESSO suite
     for quantum simulation of materials; please cite
         "P. Giannozzi et al., J. Phys.:Condens. Matter 21 395502 (2009);
         "P. Giannozzi et al., J. Phys.:Condens. Matter 29 465901 (2017);
         "P. Giannozzi et al., J. Chem. Phys. 152 154105 (2020);
          URL http://www.quantum-espresso.org", 
     in publications or presentations arising from this work. More details at
     http://www.quantum-espresso.org/quote

     Parallel version (MPI), running on     1 processors

     MPI processes distributed on     1 nodes
     4791 MiB available memory on the printing compute node when the environment starts

     Reading input from input/fm-k12.scf.in

     Current dimensions of program PWSCF are:
     Max number of different atomic species (ntypx) = 10
     Max number of k-points (npk) =  40000
     Max angular momentum in pseudopotentials (lmaxx) =  4
     file Fe.pbe-spn-kjpaw_psl.0.2.1.UPF: wavefunction(s)  3D renormalized

     Subspace diagonalization in iterative solution of the eigenvalue problem:
     a serial algorithm will be used


     G-vector sticks info
     --------------------
     sticks:   dense  smooth     PW     G-vecs:    dense   smooth      PW
     Sum        1383     467    151                32565     6363    1157

     Using Slab Decomposition



     bravais-lattice index     =            3
     lattice parameter (alat)  =       5.4169  a.u.
     unit-cell volume          =      79.4735 (a.u.)^3
     number of atoms/cell      =            1
     number of atomic types    =            1
     number of electrons       =        16.00
     number of Kohn-Sham states=           12
     kinetic-energy cutoff     =      70.0000  Ry
     charge density cutoff     =     840.0000  Ry
     scf convergence threshold =      1.0E-10
     mixing beta               =       0.7000
     number of iterations used =            8  plain     mixing
     Exchange-correlation= SLA  PW   PBX  PBC
                           (   1   4   3   4   0   0   0)

     celldm(1)=   5.416900  celldm(2)=   0.000000  celldm(3)=   0.000000
     celldm(4)=   0.000000  celldm(5)=   0.000000  celldm(6)=   0.000000

     crystal axes: (cart. coord. in units of alat)
               a(1) = (   0.500000   0.500000   0.500000 )  
               a(2) = (  -0.500000   0.500000   0.500000 )  
               a(3) = (  -0.500000  -0.500000   0.500000 )  

     reciprocal axes: (cart. coord. in units 2 pi/alat)
               b(1) = (  1.000000  0.000000  1.000000 )  
               b(2) = ( -1.000000  1.000000  0.000000 )  
               b(3) = (  0.000000 -1.000000  1.000000 )  


     PseudoPot. # 1 for Fe read from file:
     ./pseudo/Fe.pbe-spn-kjpaw_psl.0.2.1.UPF
     MD5 check sum: e86618425769142926afa95317d90200
     Pseudo is Projector augmented-wave + core cor, Zval = 16.0
     Generated using "atomic" code by A. Dal Corso  v.5.0.99 svn rev. 10869
     Shape of augmentation charge: PSQ
     Using radial grid of 1191 points,  6 beta functions with: 
                l(1) =   0
                l(2) =   0
                l(3) =   1
                l(4) =   1
                l(5) =   2
                l(6) =   2
     Q(r) pseudized with 0 coefficients 


     atomic species   valence    mass     pseudopotential
     Fe               16.00    55.84500     Fe( 1.00)

     Starting magnetic structure 
     atomic species   magnetization
     Fe              0.200

     48 Sym. Ops., with inversion, found



   Cartesian axes

     site n.     atom                  positions (alat units)
         1        Fe     tau(   1) = (   0.0000000   0.0000000   0.0000000  )

     number of k points=    72  Marzari-Vanderbilt smearing, width (Ry)=  0.0200
                       cart. coord. in units 2pi/alat
        k(    1) = (   0.0000000   0.0000000   0.0000000), wk =   0.0005787
        k(    2) = (   0.0000000  -0.0833333   0.0833333), wk =   0.0069444
        k(    3) = (   0.0000000  -0.1666667   0.1666667), wk =   0.0069444
        k(    4) = (   0.0000000  -0.2500000   0.2500000), wk =   0.0069444
        k(    5) = (   0.0000000  -0.3333333   0.3333333), wk =   0.0069444
        k(    6) = (   0.0000000  -0.4166667   0.4166667), wk =   0.0069444
        k(    7) = (   0.0000000   0.5000000  -0.5000000), wk =   0.0034722
        k(    8) = (  -0.0833333  -0.0833333   0.1666667), wk =   0.0138889
        k(    9) = (  -0.0833333  -0.1666667   0.2500000), wk =   0.0277778
        k(   10) = (  -0.0833333  -0.2500000   0.3333333), wk =   0.0277778
        k(   11) = (  -0.0833333  -0.3333333   0.4166667), wk =   0.0277778
        k(   12) = (  -0.0833333   0.5833333  -0.5000000), wk =   0.0277778
        k(   13) = (  -0.1666667  -0.1666667   0.3333333), wk =   0.0138889
        k(   14) = (  -0.1666667  -0.2500000   0.4166667), wk =   0.0277778
        k(   15) = (  -0.1666667   0.6666667  -0.5000000), wk =   0.0277778
        k(   16) = (  -0.1666667   0.5833333  -0.4166667), wk =   0.0138889
        k(   17) = (  -0.2500000   0.7500000  -0.5000000), wk =   0.0138889
        k(   18) = (  -0.2500000   0.6666667  -0.4166667), wk =   0.0277778
        k(   19) = (  -0.3333333   0.6666667  -0.3333333), wk =   0.0046296
        k(   20) = (   0.0000000   0.0000000   0.1666667), wk =   0.0034722
        k(   21) = (   0.0000000  -0.0833333   0.2500000), wk =   0.0138889
        k(   22) = (   0.0000000  -0.1666667   0.3333333), wk =   0.0138889
        k(   23) = (   0.0000000  -0.2500000   0.4166667), wk =   0.0138889
        k(   24) = (   0.0000000  -0.3333333   0.5000000), wk =   0.0138889
        k(   25) = (   0.0000000   0.5833333  -0.4166667), wk =   0.0069444
        k(   26) = (  -0.0833333  -0.0833333   0.3333333), wk =   0.0138889
        k(   27) = (  -0.0833333  -0.1666667   0.4166667), wk =   0.0277778
        k(   28) = (  -0.0833333  -0.2500000   0.5000000), wk =   0.0277778
        k(   29) = (  -0.0833333   0.6666667  -0.4166667), wk =   0.0277778
        k(   30) = (  -0.1666667   0.1666667   0.1666667), wk =   0.0046296
        k(   31) = (  -0.1666667  -0.1666667   0.5000000), wk =   0.0138889
        k(   32) = (  -0.1666667   0.7500000  -0.4166667), wk =   0.0277778
        k(   33) = (  -0.1666667   0.6666667  -0.3333333), wk =   0.0138889
        k(   34) = (  -0.2500000   0.2500000   0.1666667), wk =   0.0138889
        k(   35) = (  -0.2500000   0.7500000  -0.3333333), wk =   0.0138889
        k(   36) = (  -0.3333333   0.3333333   0.1666667), wk =   0.0138889
        k(   37) = (  -0.3333333   0.2500000   0.2500000), wk =   0.0138889
        k(   38) = (   0.5833333  -0.5833333   0.1666667), wk =   0.0138889
        k(   39) = (   0.5833333  -0.6666667   0.2500000), wk =   0.0277778
        k(   40) = (   0.5000000  -0.5000000   0.1666667), wk =   0.0069444
        k(   41) = (   0.5000000  -0.5833333   0.2500000), wk =   0.0277778
        k(   42) = (   0.5000000  -0.6666667   0.3333333), wk =   0.0138889
        k(   43) = (   0.4166667  -0.5833333   0.3333333), wk =   0.0138889
        k(   44) = (   0.0000000   0.0000000   0.3333333), wk =   0.0034722
        k(   45) = (   0.0000000  -0.0833333   0.4166667), wk =   0.0138889
        k(   46) = (   0.0000000  -0.1666667   0.5000000), wk =   0.0138889
        k(   47) = (   0.0000000  -0.2500000   0.5833333), wk =   0.0138889
        k(   48) = (   0.0000000   0.6666667  -0.3333333), wk =   0.0069444
        k(   49) = (  -0.0833333  -0.0833333   0.5000000), wk =   0.0138889
        k(   50) = (  -0.0833333  -0.1666667   0.5833333), wk =   0.0277778
        k(   51) = (  -0.0833333   0.7500000  -0.3333333), wk =   0.0277778
        k(   52) = (  -0.1666667   0.8333333  -0.3333333), wk =   0.0138889
        k(   53) = (  -0.1666667   0.7500000  -0.2500000), wk =   0.0138889
        k(   54) = (   0.6666667  -0.6666667   0.3333333), wk =   0.0046296
        k(   55) = (   0.5833333  -0.5833333   0.3333333), wk =   0.0138889
        k(   56) = (   0.5000000  -0.5000000   0.3333333), wk =   0.0069444
        k(   57) = (   0.5000000  -0.5833333   0.4166667), wk =   0.0138889
        k(   58) = (   0.0000000   0.0000000   0.5000000), wk =   0.0034722
        k(   59) = (   0.0000000  -0.0833333   0.5833333), wk =   0.0138889
        k(   60) = (   0.0000000  -0.1666667   0.6666667), wk =   0.0138889
        k(   61) = (   0.0000000   0.7500000  -0.2500000), wk =   0.0069444
        k(   62) = (  -0.0833333  -0.0833333   0.6666667), wk =   0.0138889
        k(   63) = (  -0.0833333   0.8333333  -0.2500000), wk =   0.0277778
        k(   64) = (  -0.1666667   0.8333333  -0.1666667), wk =   0.0046296
        k(   65) = (   0.5000000  -0.5000000   0.5000000), wk =   0.0011574
        k(   66) = (   0.0000000   0.0000000   0.6666667), wk =   0.0034722
        k(   67) = (   0.0000000  -0.0833333   0.7500000), wk =   0.0138889
        k(   68) = (   0.0000000   0.8333333  -0.1666667), wk =   0.0069444
        k(   69) = (  -0.0833333   0.9166667  -0.1666667), wk =   0.0138889
        k(   70) = (   0.0000000   0.0000000   0.8333333), wk =   0.0034722
        k(   71) = (   0.0000000   0.9166667  -0.0833333), wk =   0.0069444
        k(   72) = (   0.0000000   0.0000000  -1.0000000), wk =   0.0005787

     Dense  grid:    32565 G-vectors     FFT dimensions: (  45,  45,  45)

     Smooth grid:     6363 G-vectors     FFT dimensions: (  25,  25,  25)

     Estimated max dynamical RAM per process >     157.04 MB

     Check: negative core charge=   -0.000012
     Generating pointlists ...
     new r_m :   0.3572 (alat units)  1.9351 (a.u.) for type    1

     Initial potential from superposition of free atoms

     starting charge      15.9996, renormalised to      16.0000
     Starting wfcs are   13 randomized atomic wfcs
     Checking if some PAW data can be deallocated... 

     total cpu time spent up to now is        1.2 secs

     per-process dynamical memory:    52.5 Mb

     Self-consistent Calculation

     iteration #  1     ecut=    70.00 Ry     beta= 0.70
     Davidson diagonalization with overlap
     ethr =  1.00E-02,  avg # of iterations =  3.1

     Threshold (ethr) on eigenvalues was too large:
     Diagonalizing with lowered threshold

     Davidson diagonalization with overlap
     ethr =  1.54E-04,  avg # of iterations =  4.0

     negative rho (up, down):  0.000E+00 2.397E-05

     total cpu time spent up to now is        3.9 secs

     total energy              =    -329.25503219 Ry
     estimated scf accuracy    <       0.02426781 Ry

     total magnetization       =     2.53 Bohr mag/cell
     absolute magnetization    =     2.55 Bohr mag/cell

     iteration #  2     ecut=    70.00 Ry     beta= 0.70
     Davidson diagonalization with overlap
     ethr =  1.52E-04,  avg # of iterations =  2.1

     negative rho (up, down):  0.000E+00 3.150E-05

     total cpu time spent up to now is        5.4 secs

     total energy              =    -329.25634941 Ry
     estimated scf accuracy    <       0.03023958 Ry

     total magnetization       =     2.48 Bohr mag/cell
     absolute magnetization    =     2.55 Bohr mag/cell

     iteration #  3     ecut=    70.00 Ry     beta= 0.70
     Davidson diagonalization with overlap
     ethr =  1.52E-04,  avg # of iterations =  2.0

     negative rho (up, down):  0.000E+00 4.910E-05

     total cpu time spent up to now is        6.8 secs

     total energy              =    -329.26582784 Ry
     estimated scf accuracy    <       0.00476284 Ry

     total magnetization       =     2.35 Bohr mag/cell
     absolute magnetization    =     2.45 Bohr mag/cell

     iteration #  4     ecut=    70.00 Ry     beta= 0.70
     Davidson diagonalization with overlap
     ethr =  2.98E-05,  avg # of iterations =  1.7

     negative rho (up, down):  0.000E+00 4.268E-05

     total cpu time spent up to now is        8.1 secs

     total energy              =    -329.26692482 Ry
     estimated scf accuracy    <       0.00029569 Ry

     total magnetization       =     2.27 Bohr mag/cell
     absolute magnetization    =     2.39 Bohr mag/cell

     iteration #  5     ecut=    70.00 Ry     beta= 0.70
     Davidson diagonalization with overlap
     ethr =  1.85E-06,  avg # of iterations =  3.6

     negative rho (up, down):  0.000E+00 4.190E-05

     total cpu time spent up to now is        9.7 secs

     total energy              =    -329.26708923 Ry
     estimated scf accuracy    <       0.00001204 Ry

     total magnetization       =     2.24 Bohr mag/cell
     absolute magnetization    =     2.37 Bohr mag/cell

     iteration #  6     ecut=    70.00 Ry     beta= 0.70
     Davidson diagonalization with overlap
     ethr =  7.52E-08,  avg # of iterations =  3.7

     negative rho (up, down):  0.000E+00 4.185E-05

     total cpu time spent up to now is       11.3 secs

     total energy              =    -329.26710372 Ry
     estimated scf accuracy    <       0.00000075 Ry

     total magnetization       =     2.23 Bohr mag/cell
     absolute magnetization    =     2.36 Bohr mag/cell

     iteration #  7     ecut=    70.00 Ry     beta= 0.70
     Davidson diagonalization with overlap
     ethr =  4.72E-09,  avg # of iterations =  3.6

     negative rho (up, down):  0.000E+00 4.184E-05

     total cpu time spent up to now is       13.0 secs

     total energy              =    -329.26710553 Ry
     estimated scf accuracy    <       0.00000004 Ry

     total magnetization       =     2.23 Bohr mag/cell
     absolute magnetization    =     2.35 Bohr mag/cell

     iteration #  8     ecut=    70.00 Ry     beta= 0.70
     Davidson diagonalization with overlap
     ethr =  2.65E-10,  avg # of iterations =  3.7

     negative rho (up, down):  0.000E+00 4.184E-05

     total cpu time spent up to now is       14.6 secs

     total energy              =    -329.26710558 Ry
     estimated scf accuracy    <          6.5E-09 Ry

     total magnetization       =     2.23 Bohr mag/cell
     absolute magnetization    =     2.35 Bohr mag/cell

     iteration #  9     ecut=    70.00 Ry     beta= 0.70
     Davidson diagonalization with overlap
     ethr =  4.04E-11,  avg # of iterations =  2.8

     negative rho (up, down):  0.000E+00 4.183E-05

     total cpu time spent up to now is       16.1 secs

     total energy              =    -329.26710558 Ry
     estimated scf accuracy    <          6.1E-10 Ry

     total magnetization       =     2.23 Bohr mag/cell
     absolute magnetization    =     2.35 Bohr mag/cell

     iteration # 10     ecut=    70.00 Ry     beta= 0.70
     Davidson diagonalization with overlap
     ethr =  3.82E-12,  avg # of iterations =  2.3

     negative rho (up, down):  0.000E+00 4.183E-05

     Magnetic moment per site  (integrated on atomic sphere of radius R)
     atom   1 (R=0.357)  charge= 14.4214  magn=  2.2827

     total cpu time spent up to now is       17.6 secs

     End of self-consistent calculation

     Number of k-points >= 100: set verbosity='high' to print the bands.

     the Fermi energy is    17.4521 ev

!    total energy              =    -329.26710558 Ry
     total all-electron energy =     -2545.563641 Ry
     estimated scf accuracy    <          5.6E-12 Ry
     smearing contrib. (-TS)   =       0.00108935 Ry
     internal energy E=F+TS    =    -329.26819493 Ry

     The total energy is F=E-TS. E is the sum of the following terms:
     one-electron contribution =    -112.89531670 Ry
     hartree contribution      =      66.57410158 Ry
     xc contribution           =     -34.80757659 Ry
     ewald contribution        =    -171.98836291 Ry
     one-center paw contrib.   =     -76.15104032 Ry

     total magnetization       =     2.23 Bohr mag/cell
     absolute magnetization    =     2.35 Bohr mag/cell

     convergence has been achieved in  10 iterations

     negative rho (up, down):  0.000E+00 4.183E-05

     Forces acting on atoms (cartesian axes, Ry/au):

     atom    1 type  1   force =     0.00000000    0.00000000    0.00000000

     Total force =     0.000000     Total SCF correction =     0.000000


     Computing stress (Cartesian axis) and pressure


     negative rho (up, down):  0.000E+00 4.183E-05
          total   stress  (Ry/bohr**3)                   (kbar)     P=      -92.72
  -0.00063032  -0.00000000   0.00000000          -92.72       -0.00        0.00
  -0.00000000  -0.00063032  -0.00000000           -0.00      -92.72       -0.00
   0.00000000  -0.00000000  -0.00063032            0.00       -0.00      -92.72


     Writing all to output data dir ./work/fe_fm_k12/fe_fm_k12.save/ :
     XML data file, charge density, pseudopotentials, collected wavefunctions

     init_run     :      1.05s CPU      1.15s WALL (       1 calls)
     electrons    :     14.94s CPU     16.40s WALL (       1 calls)
     forces       :      0.23s CPU      0.27s WALL (       1 calls)
     stress       :      1.05s CPU      1.18s WALL (       1 calls)

     Called by init_run:
     wfcinit      :      0.37s CPU      0.38s WALL (       1 calls)
     potinit      :      0.30s CPU      0.35s WALL (       1 calls)
     hinit0       :      0.31s CPU      0.32s WALL (       1 calls)

     Called by electrons:
     c_bands      :      9.54s CPU      9.74s WALL (      11 calls)
     sum_band     :      2.32s CPU      2.71s WALL (      11 calls)
     v_of_rho     :      0.44s CPU      0.50s WALL (      11 calls)
     newd         :      0.60s CPU      0.98s WALL (      11 calls)
     PAW_pot      :      2.29s CPU      2.80s WALL (      11 calls)
     mix_rho      :      0.03s CPU      0.03s WALL (      11 calls)

     Called by c_bands:
     init_us_2    :      0.31s CPU      0.31s WALL (    3600 calls)
     cegterg      :      9.11s CPU      9.30s WALL (    1584 calls)

     Called by *egterg:
     cdiaghg      :      0.46s CPU      0.46s WALL (    6133 calls)
     h_psi        :      5.36s CPU      5.49s WALL (    6421 calls)
     s_psi        :      0.60s CPU      0.61s WALL (    6421 calls)
     g_psi        :      0.06s CPU      0.06s WALL (    4693 calls)

     Called by h_psi:
     h_psi:calbec :      0.59s CPU      0.60s WALL (    6421 calls)
     vloc_psi     :      4.13s CPU      4.23s WALL (    6421 calls)
                                        0.00s GPU  (    6421 calls)
     add_vuspsi   :      0.60s CPU      0.61s WALL (    6421 calls)

     General routines
     calbec       :      1.14s CPU      1.16s WALL (   10453 calls)
     fft          :      0.23s CPU      0.24s WALL (     315 calls)
     ffts         :      0.03s CPU      0.03s WALL (      44 calls)
     fftw         :      4.06s CPU      4.17s WALL (  119630 calls)
     interpolate  :      0.04s CPU      0.04s WALL (      22 calls)

     Parallel routines

     PWSCF        :     17.35s CPU     19.09s WALL


   This run was terminated on:   2:29: 2   5Aug2026            

=------------------------------------------------------------------------------=
   JOB DONE.
=------------------------------------------------------------------------------=
