
     Program PWSCF v.7.5 starts on  5Aug2026 at  2:29: 2 

     This program is part of the open-source Quantum ESPRESSO suite
     for quantum simulation of materials; please cite
         "P. Giannozzi et al., J. Phys.:Condens. Matter 21 395502 (2009);
         "P. Giannozzi et al., J. Phys.:Condens. Matter 29 465901 (2017);
         "P. Giannozzi et al., J. Chem. Phys. 152 154105 (2020);
          URL http://www.quantum-espresso.org", 
     in publications or presentations arising from this work. More details at
     http://www.quantum-espresso.org/quote

     Parallel version (MPI), running on     1 processors

     MPI processes distributed on     1 nodes
     4789 MiB available memory on the printing compute node when the environment starts

     Reading input from input/nm-k12.scf.in

     Current dimensions of program PWSCF are:
     Max number of different atomic species (ntypx) = 10
     Max number of k-points (npk) =  40000
     Max angular momentum in pseudopotentials (lmaxx) =  4
     file Fe.pbe-spn-kjpaw_psl.0.2.1.UPF: wavefunction(s)  3D renormalized

     Subspace diagonalization in iterative solution of the eigenvalue problem:
     a serial algorithm will be used


     G-vector sticks info
     --------------------
     sticks:   dense  smooth     PW     G-vecs:    dense   smooth      PW
     Sum        1383     467    151                32565     6363    1157

     Using Slab Decomposition



     bravais-lattice index     =            3
     lattice parameter (alat)  =       5.4169  a.u.
     unit-cell volume          =      79.4735 (a.u.)^3
     number of atoms/cell      =            1
     number of atomic types    =            1
     number of electrons       =        16.00
     number of Kohn-Sham states=           12
     kinetic-energy cutoff     =      70.0000  Ry
     charge density cutoff     =     840.0000  Ry
     scf convergence threshold =      1.0E-10
     mixing beta               =       0.7000
     number of iterations used =            8  plain     mixing
     Exchange-correlation= SLA  PW   PBX  PBC
                           (   1   4   3   4   0   0   0)

     celldm(1)=   5.416900  celldm(2)=   0.000000  celldm(3)=   0.000000
     celldm(4)=   0.000000  celldm(5)=   0.000000  celldm(6)=   0.000000

     crystal axes: (cart. coord. in units of alat)
               a(1) = (   0.500000   0.500000   0.500000 )  
               a(2) = (  -0.500000   0.500000   0.500000 )  
               a(3) = (  -0.500000  -0.500000   0.500000 )  

     reciprocal axes: (cart. coord. in units 2 pi/alat)
               b(1) = (  1.000000  0.000000  1.000000 )  
               b(2) = ( -1.000000  1.000000  0.000000 )  
               b(3) = (  0.000000 -1.000000  1.000000 )  


     PseudoPot. # 1 for Fe read from file:
     ./pseudo/Fe.pbe-spn-kjpaw_psl.0.2.1.UPF
     MD5 check sum: e86618425769142926afa95317d90200
     Pseudo is Projector augmented-wave + core cor, Zval = 16.0
     Generated using "atomic" code by A. Dal Corso  v.5.0.99 svn rev. 10869
     Shape of augmentation charge: PSQ
     Using radial grid of 1191 points,  6 beta functions with: 
                l(1) =   0
                l(2) =   0
                l(3) =   1
                l(4) =   1
                l(5) =   2
                l(6) =   2
     Q(r) pseudized with 0 coefficients 


     atomic species   valence    mass     pseudopotential
     Fe               16.00    55.84500     Fe( 1.00)

     48 Sym. Ops., with inversion, found



   Cartesian axes

     site n.     atom                  positions (alat units)
         1        Fe     tau(   1) = (   0.0000000   0.0000000   0.0000000  )

     number of k points=    72  Marzari-Vanderbilt smearing, width (Ry)=  0.0200
                       cart. coord. in units 2pi/alat
        k(    1) = (   0.0000000   0.0000000   0.0000000), wk =   0.0011574
        k(    2) = (   0.0000000  -0.0833333   0.0833333), wk =   0.0138889
        k(    3) = (   0.0000000  -0.1666667   0.1666667), wk =   0.0138889
        k(    4) = (   0.0000000  -0.2500000   0.2500000), wk =   0.0138889
        k(    5) = (   0.0000000  -0.3333333   0.3333333), wk =   0.0138889
        k(    6) = (   0.0000000  -0.4166667   0.4166667), wk =   0.0138889
        k(    7) = (   0.0000000   0.5000000  -0.5000000), wk =   0.0069444
        k(    8) = (  -0.0833333  -0.0833333   0.1666667), wk =   0.0277778
        k(    9) = (  -0.0833333  -0.1666667   0.2500000), wk =   0.0555556
        k(   10) = (  -0.0833333  -0.2500000   0.3333333), wk =   0.0555556
        k(   11) = (  -0.0833333  -0.3333333   0.4166667), wk =   0.0555556
        k(   12) = (  -0.0833333   0.5833333  -0.5000000), wk =   0.0555556
        k(   13) = (  -0.1666667  -0.1666667   0.3333333), wk =   0.0277778
        k(   14) = (  -0.1666667  -0.2500000   0.4166667), wk =   0.0555556
        k(   15) = (  -0.1666667   0.6666667  -0.5000000), wk =   0.0555556
        k(   16) = (  -0.1666667   0.5833333  -0.4166667), wk =   0.0277778
        k(   17) = (  -0.2500000   0.7500000  -0.5000000), wk =   0.0277778
        k(   18) = (  -0.2500000   0.6666667  -0.4166667), wk =   0.0555556
        k(   19) = (  -0.3333333   0.6666667  -0.3333333), wk =   0.0092593
        k(   20) = (   0.0000000   0.0000000   0.1666667), wk =   0.0069444
        k(   21) = (   0.0000000  -0.0833333   0.2500000), wk =   0.0277778
        k(   22) = (   0.0000000  -0.1666667   0.3333333), wk =   0.0277778
        k(   23) = (   0.0000000  -0.2500000   0.4166667), wk =   0.0277778
        k(   24) = (   0.0000000  -0.3333333   0.5000000), wk =   0.0277778
        k(   25) = (   0.0000000   0.5833333  -0.4166667), wk =   0.0138889
        k(   26) = (  -0.0833333  -0.0833333   0.3333333), wk =   0.0277778
        k(   27) = (  -0.0833333  -0.1666667   0.4166667), wk =   0.0555556
        k(   28) = (  -0.0833333  -0.2500000   0.5000000), wk =   0.0555556
        k(   29) = (  -0.0833333   0.6666667  -0.4166667), wk =   0.0555556
        k(   30) = (  -0.1666667   0.1666667   0.1666667), wk =   0.0092593
        k(   31) = (  -0.1666667  -0.1666667   0.5000000), wk =   0.0277778
        k(   32) = (  -0.1666667   0.7500000  -0.4166667), wk =   0.0555556
        k(   33) = (  -0.1666667   0.6666667  -0.3333333), wk =   0.0277778
        k(   34) = (  -0.2500000   0.2500000   0.1666667), wk =   0.0277778
        k(   35) = (  -0.2500000   0.7500000  -0.3333333), wk =   0.0277778
        k(   36) = (  -0.3333333   0.3333333   0.1666667), wk =   0.0277778
        k(   37) = (  -0.3333333   0.2500000   0.2500000), wk =   0.0277778
        k(   38) = (   0.5833333  -0.5833333   0.1666667), wk =   0.0277778
        k(   39) = (   0.5833333  -0.6666667   0.2500000), wk =   0.0555556
        k(   40) = (   0.5000000  -0.5000000   0.1666667), wk =   0.0138889
        k(   41) = (   0.5000000  -0.5833333   0.2500000), wk =   0.0555556
        k(   42) = (   0.5000000  -0.6666667   0.3333333), wk =   0.0277778
        k(   43) = (   0.4166667  -0.5833333   0.3333333), wk =   0.0277778
        k(   44) = (   0.0000000   0.0000000   0.3333333), wk =   0.0069444
        k(   45) = (   0.0000000  -0.0833333   0.4166667), wk =   0.0277778
        k(   46) = (   0.0000000  -0.1666667   0.5000000), wk =   0.0277778
        k(   47) = (   0.0000000  -0.2500000   0.5833333), wk =   0.0277778
        k(   48) = (   0.0000000   0.6666667  -0.3333333), wk =   0.0138889
        k(   49) = (  -0.0833333  -0.0833333   0.5000000), wk =   0.0277778
        k(   50) = (  -0.0833333  -0.1666667   0.5833333), wk =   0.0555556
        k(   51) = (  -0.0833333   0.7500000  -0.3333333), wk =   0.0555556
        k(   52) = (  -0.1666667   0.8333333  -0.3333333), wk =   0.0277778
        k(   53) = (  -0.1666667   0.7500000  -0.2500000), wk =   0.0277778
        k(   54) = (   0.6666667  -0.6666667   0.3333333), wk =   0.0092593
        k(   55) = (   0.5833333  -0.5833333   0.3333333), wk =   0.0277778
        k(   56) = (   0.5000000  -0.5000000   0.3333333), wk =   0.0138889
        k(   57) = (   0.5000000  -0.5833333   0.4166667), wk =   0.0277778
        k(   58) = (   0.0000000   0.0000000   0.5000000), wk =   0.0069444
        k(   59) = (   0.0000000  -0.0833333   0.5833333), wk =   0.0277778
        k(   60) = (   0.0000000  -0.1666667   0.6666667), wk =   0.0277778
        k(   61) = (   0.0000000   0.7500000  -0.2500000), wk =   0.0138889
        k(   62) = (  -0.0833333  -0.0833333   0.6666667), wk =   0.0277778
        k(   63) = (  -0.0833333   0.8333333  -0.2500000), wk =   0.0555556
        k(   64) = (  -0.1666667   0.8333333  -0.1666667), wk =   0.0092593
        k(   65) = (   0.5000000  -0.5000000   0.5000000), wk =   0.0023148
        k(   66) = (   0.0000000   0.0000000   0.6666667), wk =   0.0069444
        k(   67) = (   0.0000000  -0.0833333   0.7500000), wk =   0.0277778
        k(   68) = (   0.0000000   0.8333333  -0.1666667), wk =   0.0138889
        k(   69) = (  -0.0833333   0.9166667  -0.1666667), wk =   0.0277778
        k(   70) = (   0.0000000   0.0000000   0.8333333), wk =   0.0069444
        k(   71) = (   0.0000000   0.9166667  -0.0833333), wk =   0.0138889
        k(   72) = (   0.0000000   0.0000000  -1.0000000), wk =   0.0011574

     Dense  grid:    32565 G-vectors     FFT dimensions: (  45,  45,  45)

     Smooth grid:     6363 G-vectors     FFT dimensions: (  25,  25,  25)

     Estimated max dynamical RAM per process >     132.52 MB

     Check: negative core charge=   -0.000012

     Initial potential from superposition of free atoms

     starting charge      15.9996, renormalised to      16.0000
     Starting wfcs are   13 randomized atomic wfcs
     Checking if some PAW data can be deallocated... 

     total cpu time spent up to now is        0.9 secs

     per-process dynamical memory:    35.9 Mb

     Self-consistent Calculation

     iteration #  1     ecut=    70.00 Ry     beta= 0.70
     Davidson diagonalization with overlap
     ethr =  1.00E-02,  avg # of iterations =  3.0

     Threshold (ethr) on eigenvalues was too large:
     Diagonalizing with lowered threshold

     Davidson diagonalization with overlap
     ethr =  2.21E-04,  avg # of iterations =  3.6

     total cpu time spent up to now is        2.2 secs

     total energy              =    -329.20522907 Ry
     estimated scf accuracy    <       0.03555268 Ry

     iteration #  2     ecut=    70.00 Ry     beta= 0.70
     Davidson diagonalization with overlap
     ethr =  2.22E-04,  avg # of iterations =  2.1

     total cpu time spent up to now is        3.0 secs

     total energy              =    -329.20666019 Ry
     estimated scf accuracy    <       0.11163575 Ry

     iteration #  3     ecut=    70.00 Ry     beta= 0.70
     Davidson diagonalization with overlap
     ethr =  2.22E-04,  avg # of iterations =  2.1

     total cpu time spent up to now is        3.7 secs

     total energy              =    -329.22516447 Ry
     estimated scf accuracy    <       0.00010119 Ry

     iteration #  4     ecut=    70.00 Ry     beta= 0.70
     Davidson diagonalization with overlap
     ethr =  6.32E-07,  avg # of iterations =  6.2

     total cpu time spent up to now is        4.8 secs

     total energy              =    -329.22526887 Ry
     estimated scf accuracy    <       0.00007132 Ry

     iteration #  5     ecut=    70.00 Ry     beta= 0.70
     Davidson diagonalization with overlap
     ethr =  4.46E-07,  avg # of iterations =  1.5

     total cpu time spent up to now is        5.5 secs

     total energy              =    -329.22527259 Ry
     estimated scf accuracy    <       0.00000713 Ry

     iteration #  6     ecut=    70.00 Ry     beta= 0.70
     Davidson diagonalization with overlap
     ethr =  4.46E-08,  avg # of iterations =  2.0

     total cpu time spent up to now is        6.3 secs

     total energy              =    -329.22527344 Ry
     estimated scf accuracy    <       0.00000042 Ry

     iteration #  7     ecut=    70.00 Ry     beta= 0.70
     Davidson diagonalization with overlap
     ethr =  2.61E-09,  avg # of iterations =  3.3

     total cpu time spent up to now is        7.1 secs

     total energy              =    -329.22527361 Ry
     estimated scf accuracy    <          5.2E-10 Ry

     iteration #  8     ecut=    70.00 Ry     beta= 0.70
     Davidson diagonalization with overlap
     ethr =  3.25E-12,  avg # of iterations =  7.0

     total cpu time spent up to now is        8.3 secs

     total energy              =    -329.22527362 Ry
     estimated scf accuracy    <          3.8E-09 Ry

     iteration #  9     ecut=    70.00 Ry     beta= 0.70
     Davidson diagonalization with overlap
     ethr =  3.25E-12,  avg # of iterations =  3.2

     total cpu time spent up to now is        9.2 secs

     End of self-consistent calculation

          k = 0.0000 0.0000 0.0000 (   791 PWs)   bands (ev):

   -69.5434 -35.3732 -35.3732 -35.3732   9.2201  16.0178  16.0178  16.0178
    17.5196  17.5196  41.9121  41.9121

          k = 0.0000-0.0833 0.0833 (   779 PWs)   bands (ev):

   -69.5387 -35.3986 -35.3814 -35.3727   9.5001  15.9380  16.0066  16.1702
    17.4403  17.5262  40.2262  41.4859

          k = 0.0000-0.1667 0.1667 (   776 PWs)   bands (ev):

   -69.5259 -35.4690 -35.4048 -35.3725  10.3040  15.7242  15.9339  16.6020
    17.3049  17.5490  36.8397  40.0597

          k = 0.0000-0.2500 0.2500 (   784 PWs)   bands (ev):

   -69.5085 -35.5649 -35.4368 -35.3730  11.4846  15.4420  15.8197  17.2347
    17.2865  17.5921  33.0633  38.2827

          k = 0.0000-0.3333 0.3333 (   786 PWs)   bands (ev):

   -69.4910 -35.6594 -35.4689 -35.3731  12.6308  15.1703  16.0604  17.3865
    17.6497  17.9287  29.4302  36.7773

          k = 0.0000-0.4167 0.4167 (   798 PWs)   bands (ev):

   -69.4782 -35.7279 -35.4931 -35.3735  13.1607  14.9776  17.0798  17.5252
    17.7018  18.4865  26.3972  35.7954

          k = 0.0000 0.5000-0.5000 (   798 PWs)   bands (ev):

   -69.4735 -35.7531 -35.5016 -35.3734  13.2479  14.9083  17.4888  17.7230
    17.9666  18.7035  25.0031  35.4560

          k =-0.0833-0.0833 0.1667 (   781 PWs)   bands (ev):

   -69.5300 -35.4474 -35.3906 -35.3791  10.0434  15.8352  15.8980  16.4870
    17.3135  17.5578  38.3074  39.4081

          k =-0.0833-0.1667 0.2500 (   784 PWs)   bands (ev):

   -69.5149 -35.5277 -35.4186 -35.3819  11.0506  15.5914  15.7511  17.0562
    17.2141  17.6191  35.0329  37.4765

          k =-0.0833-0.2500 0.3333 (   792 PWs)   bands (ev):

   -69.4974 -35.6182 -35.4551 -35.3827  12.2774  15.3067  15.6879  17.2616
    17.6664  17.8175  31.3231  35.9937

          k =-0.0833-0.3333 0.4167 (   790 PWs)   bands (ev):

   -69.4823 -35.6948 -35.4869 -35.3832  13.1440  15.0750  16.1499  17.4012
    17.7732  18.6075  27.9006  34.8917

          k =-0.0833 0.5833-0.5000 (   788 PWs)   bands (ev):

   -69.4735 -35.7385 -35.5055 -35.3832  13.3763  14.9475  16.8643  17.4695
    17.9785  19.3886  25.4291  34.2921

          k =-0.1667-0.1667 0.3333 (   789 PWs)   bands (ev):

   -69.4998 -35.5987 -35.4449 -35.3952  12.1519  15.4192  15.4773  17.1699
    17.6638  17.8633  33.1611  34.0960

          k =-0.1667-0.2500 0.4167 (   787 PWs)   bands (ev):

   -69.4846 -35.6620 -35.4851 -35.4009  13.2417  15.1456  15.4898  17.2629
    17.7752  18.8221  29.8893  32.4431

          k =-0.1667 0.6667-0.5000 (   781 PWs)   bands (ev):

   -69.4735 -35.7046 -35.5199 -35.4026  13.7252  15.0085  15.8819  17.4059
    17.8767  20.0630  26.7330  31.5804

          k =-0.1667 0.5833-0.4167 (   783 PWs)   bands (ev):

   -69.4694 -35.7199 -35.5333 -35.4031  13.7805  14.9676  16.1454  17.4549
    17.9645  20.9821  25.1007  31.2773

          k =-0.2500 0.7500-0.5000 (   784 PWs)   bands (ev):

   -69.4735 -35.6833 -35.5320 -35.4124  14.0197  14.9511  15.4608  17.3662
    17.8278  20.2871  28.4881  29.2858

          k =-0.2500 0.6667-0.4167 (   782 PWs)   bands (ev):

   -69.4671 -35.6834 -35.5737 -35.4165  14.2719  14.9569  15.5067  17.5067
    17.8420  22.1004  25.8541  28.4259

          k =-0.3333 0.6667-0.3333 (   784 PWs)   bands (ev):

   -69.4648 -35.6350 -35.6350 -35.4208  14.5454  15.1109  15.1109  17.6905
    17.6905  24.4161  24.4161  26.8609

          k = 0.0000 0.0000 0.1667 (   791 PWs)   bands (ev):

   -69.5341 -35.4069 -35.3904 -35.3904   9.7753  16.0129  16.0129  16.1729
    17.2517  17.6216  39.4472  41.1662

          k = 0.0000-0.0833 0.2500 (   780 PWs)   bands (ev):

   -69.5216 -35.4699 -35.4136 -35.3944  10.5638  15.8554  15.9754  16.5628
    17.0106  17.7083  36.9103  39.4383

          k = 0.0000-0.1667 0.3333 (   785 PWs)   bands (ev):

   -69.5044 -35.5629 -35.4463 -35.3935  11.7172  15.5915  15.8152  16.9902
    17.1970  17.7973  33.2579  37.7468

          k = 0.0000-0.2500 0.4167 (   785 PWs)   bands (ev):

   -69.4873 -35.6549 -35.4785 -35.3924  12.8342  15.3337  15.8284  17.1969
    17.8983  17.9853  29.6110  36.4209

          k = 0.0000-0.3333 0.5000 (   793 PWs)   bands (ev):

   -69.4747 -35.7217 -35.5027 -35.3919  13.3471  15.1500  16.2795  17.3380
    18.4644  18.6509  26.5126  35.5596

          k = 0.0000 0.5833-0.4167 (   792 PWs)   bands (ev):

   -69.4701 -35.7462 -35.5112 -35.3913  13.4261  15.0838  16.5489  17.3325
    18.6852  19.3401  25.0318  35.2613

          k =-0.0833-0.0833 0.3333 (   787 PWs)   bands (ev):

   -69.5070 -35.5336 -35.4401 -35.4101  11.5197  15.7992  15.8198  16.8005
    17.0162  17.8465  35.0279  36.2019

          k =-0.0833-0.1667 0.4167 (   786 PWs)   bands (ev):

   -69.4901 -35.6143 -35.4764 -35.4133  12.6710  15.4737  15.7038  16.9032
    17.6426  18.1252  31.6952  34.2891

          k =-0.0833-0.2500 0.5000 (   788 PWs)   bands (ev):

   -69.4755 -35.6849 -35.5095 -35.4133  13.4918  15.2981  15.6952  17.1472
    18.0283  19.0211  28.2199  33.1696

          k =-0.0833 0.6667-0.4167 (   786 PWs)   bands (ev):

   -69.4671 -35.7256 -35.5286 -35.4127  13.7041  15.2449  15.8885  17.2300
    18.3662  20.2828  25.5667  32.5573

          k =-0.1667 0.1667 0.1667 (   772 PWs)   bands (ev):

   -69.5187 -35.5165 -35.3915 -35.3915  10.8150  15.6324  15.6324  17.0563
    17.4389  17.4389  36.6833  36.6833

          k =-0.1667-0.1667 0.5000 (   784 PWs)   bands (ev):

   -69.4758 -35.6619 -35.5189 -35.4237  13.6153  15.1087  15.7049  17.0174
    17.8720  19.1645  30.1712  30.8300

          k =-0.1667 0.7500-0.4167 (   783 PWs)   bands (ev):

   -69.4653 -35.6919 -35.5590 -35.4267  14.1294  15.0176  15.5792  17.2471
    18.0245  20.7978  27.1336  29.6996

          k =-0.1667 0.6667-0.3333 (   786 PWs)   bands (ev):

   -69.4615 -35.7020 -35.5756 -35.4271  14.1862  15.2314  15.3790  17.3351
    18.1258  22.1452  25.2226  29.3781

          k =-0.2500 0.2500 0.1667 (   790 PWs)   bands (ev):

   -69.5033 -35.5946 -35.4263 -35.3940  11.9599  15.3332  15.4326  17.3939
    17.5585  17.8172  33.2993  35.2108

          k =-0.2500 0.7500-0.3333 (   783 PWs)   bands (ev):

   -69.4595 -35.6721 -35.6150 -35.4311  14.6772  14.8366  15.2399  17.5430
    17.8957  23.0511  25.8331  27.2933

          k =-0.3333 0.3333 0.1667 (   791 PWs)   bands (ev):

   -69.4878 -35.6632 -35.4686 -35.3958  13.0901  15.0758  15.4960  17.4472
    17.6510  18.7364  29.7218  34.0408

          k =-0.3333 0.2500 0.2500 (   790 PWs)   bands (ev):

   -69.4899 -35.6492 -35.4516 -35.4132  13.1007  15.1161  15.1611  17.4545
    17.6409  18.8028  31.6103  32.3371

          k = 0.5833-0.5833 0.1667 (   790 PWs)   bands (ev):

   -69.4765 -35.7100 -35.5026 -35.3971  13.5683  14.9048  16.1730  17.5238
    17.7112  19.8017  26.6079  33.2835

          k = 0.5833-0.6667 0.2500 (   789 PWs)   bands (ev):

   -69.4782 -35.6815 -35.4969 -35.4210  13.9210  14.9235  15.3246  17.5257
    17.7205  20.0570  28.4711  31.0189

          k = 0.5000-0.5000 0.1667 (   788 PWs)   bands (ev):

   -69.4724 -35.7267 -35.5153 -35.3974  13.6229  14.8451  16.6265  17.5539
    17.7325  20.5455  25.0705  33.0209

          k = 0.5000-0.5833 0.2500 (   789 PWs)   bands (ev):

   -69.4715 -35.6929 -35.5321 -35.4237  14.0519  14.8338  15.8453  17.5938
    17.7580  21.5191  25.7379  30.4552

          k = 0.5000-0.6667 0.3333 (   783 PWs)   bands (ev):

   -69.4712 -35.6697 -35.5452 -35.4366  14.3785  14.8991  15.3145  17.6060
    17.7582  21.8343  27.2160  28.2030

          k = 0.4167-0.5833 0.3333 (   788 PWs)   bands (ev):

   -69.4686 -35.6495 -35.5809 -35.4410  14.4322  14.9321  15.3889  17.6647
    17.7479  23.4790  25.3068  27.6519

          k = 0.0000 0.0000 0.3333 (   763 PWs)   bands (ev):

   -69.5096 -35.4862 -35.4373 -35.4373  11.3003  16.0881  16.0881  16.5150
    16.6018  17.8911  36.6461  38.0554

          k = 0.0000-0.0833 0.4167 (   787 PWs)   bands (ev):

   -69.4933 -35.5591 -35.4714 -35.4483  12.3512  15.8098  15.9959  16.5062
    17.1193  18.1078  33.8230  36.2821

          k = 0.0000-0.1667 0.5000 (   789 PWs)   bands (ev):

   -69.4770 -35.6424 -35.5049 -35.4461  13.3441  15.4105  15.7985  16.8589
    17.8200  18.6307  30.1489  34.7708

          k = 0.0000-0.2500 0.5833 (   784 PWs)   bands (ev):

   -69.4650 -35.7037 -35.5289 -35.4433  13.7953  15.3864  15.6465  17.0168
    18.4045  19.8921  26.8880  33.7097

          k = 0.0000 0.6667-0.3333 (   796 PWs)   bands (ev):

   -69.4606 -35.7271 -35.5382 -35.4423  13.8476  15.4820  15.5907  17.0209
    18.6355  20.9975  25.1463  33.3181

          k =-0.0833-0.0833 0.5000 (   789 PWs)   bands (ev):

   -69.4775 -35.6130 -35.5094 -35.4658  13.2913  15.3522  16.0963  16.6324
    17.5823  18.6251  32.1964  32.7813

          k =-0.0833-0.1667 0.5833 (   782 PWs)   bands (ev):

   -69.4638 -35.6690 -35.5457 -35.4666  13.9628  14.9872  15.9619  16.9554
    18.0496  19.8699  28.8617  31.3889

          k =-0.0833 0.7500-0.3333 (   786 PWs)   bands (ev):

   -69.4559 -35.7033 -35.5669 -35.4654  14.1285  15.0034  15.7895  17.0953
    18.4003  21.6765  25.9202  30.7291

          k =-0.1667 0.8333-0.3333 (   781 PWs)   bands (ev):

   -69.4542 -35.6795 -35.5953 -35.4710  14.4214  14.6481  15.7925  17.3440
    18.1208  21.8530  27.5921  28.3765

          k =-0.1667 0.7500-0.2500 (   785 PWs)   bands (ev):

   -69.4506 -35.6773 -35.6210 -35.4714  14.4574  14.7107  15.6189  17.5666
    18.1231  23.7345  25.4860  27.8083

          k = 0.6667-0.6667 0.3333 (   796 PWs)   bands (ev):

   -69.4800 -35.6726 -35.4586 -35.4586  14.1320  14.9134  14.9134  17.6345
    17.6345  20.0740  30.4496  30.4496

          k = 0.5833-0.5833 0.3333 (   785 PWs)   bands (ev):

   -69.4727 -35.6668 -35.5136 -35.4632  14.5017  14.8040  15.2076  17.6693
    17.7252  21.7169  27.4566  29.7308

          k = 0.5000-0.5000 0.3333 (   786 PWs)   bands (ev):

   -69.4701 -35.6548 -35.5441 -35.4650  14.4561  14.7704  15.5143  17.6898
    17.7515  23.1486  25.4504  29.4869

          k = 0.5000-0.5833 0.4167 (   787 PWs)   bands (ev):

   -69.4695 -35.6246 -35.5551 -35.4901  14.6684  14.9114  15.1497  17.7276
    17.7510  23.8251  26.4213  27.4890

          k = 0.0000 0.0000 0.5000 (   771 PWs)   bands (ev):

   -69.4781 -35.5695 -35.5053 -35.5053  13.1692  15.5121  16.4207  16.4207
    17.1995  18.5486  34.2954  34.2954

          k = 0.0000-0.0833 0.5833 (   788 PWs)   bands (ev):

   -69.4630 -35.6268 -35.5404 -35.5170  13.8294  14.9848  16.4745  16.7615
    17.7385  19.4636  30.9332  32.6461

          k = 0.0000-0.1667 0.6667 (   780 PWs)   bands (ev):

   -69.4518 -35.6797 -35.5653 -35.5127  14.1180  14.6783  16.3994  16.9664
    18.3246  21.1879  27.5543  31.5022

          k = 0.0000 0.7500-0.2500 (   782 PWs)   bands (ev):

   -69.4477 -35.7001 -35.5744 -35.5105  14.1268  14.6477  16.3646  17.0073
    18.5679  22.7879  25.4266  31.0821

          k =-0.0833-0.0833 0.6667 (   782 PWs)   bands (ev):

   -69.4503 -35.6557 -35.5809 -35.5297  14.1221  14.5548  16.5612  17.1714
    18.0761  21.0149  29.5349  29.8811

          k =-0.0833 0.8333-0.2500 (   781 PWs)   bands (ev):

   -69.4430 -35.6778 -35.6075 -35.5284  14.1857  14.3563  16.4866  17.4694
    18.3584  23.2007  26.5854  29.0080

          k =-0.1667 0.8333-0.1667 (   784 PWs)   bands (ev):

   -69.4398 -35.6525 -35.6525 -35.5294  14.2208  14.2208  16.4338  18.0589
    18.0589  25.5318  25.5318  27.0440

          k = 0.5000-0.5000 0.5000 (   784 PWs)   bands (ev):

   -69.4689 -35.5587 -35.5587 -35.5587  14.9259  14.9259  14.9259  17.7610
    17.7610  26.1514  26.1514  26.1514

          k = 0.0000 0.0000 0.6667 (   787 PWs)   bands (ev):

   -69.4489 -35.6227 -35.5758 -35.5758  14.0035  14.5295  17.1025  17.1025
    17.8105  20.7164  30.8701  30.8701

          k = 0.0000-0.0833 0.7500 (   788 PWs)   bands (ev):

   -69.4386 -35.6564 -35.6015 -35.5821  14.0043  14.1690  17.2723  17.4386
    18.2520  22.6391  28.3322  29.6209

          k = 0.0000 0.8333-0.1667 (   786 PWs)   bands (ev):

   -69.4348 -35.6736 -35.6108 -35.5792  13.9749  14.0521  17.2768  17.5491
    18.5008  24.6373  25.9705  29.1566

          k =-0.0833 0.9167-0.1667 (   790 PWs)   bands (ev):

   -69.4318 -35.6591 -35.6342 -35.5888  13.9053  13.9269  17.3749  17.9967
    18.3579  24.8083  27.3052  27.7063

          k = 0.0000 0.0000 0.8333 (   792 PWs)   bands (ev):

   -69.4289 -35.6438 -35.6278 -35.6278  13.7785  13.8294  17.9720  17.9720
    18.2659  24.4342  28.2684  28.2684

          k = 0.0000 0.9167-0.0833 (   792 PWs)   bands (ev):

   -69.4253 -35.6543 -35.6374 -35.6293  13.6961  13.6967  18.0885  18.1778
    18.4520  26.3520  26.7489  27.7548

          k = 0.0000 0.0000-1.0000 (   784 PWs)   bands (ev):

   -69.4218 -35.6469 -35.6469 -35.6469  13.5778  13.5778  18.4342  18.4342
    18.4342  27.2165  27.2165  27.2165

     the Fermi energy is    17.5581 ev

!    total energy              =    -329.22527362 Ry
     total all-electron energy =     -2545.521809 Ry
     estimated scf accuracy    <          4.1E-11 Ry
     smearing contrib. (-TS)   =      -0.00169119 Ry
     internal energy E=F+TS    =    -329.22358243 Ry

     The total energy is F=E-TS. E is the sum of the following terms:
     one-electron contribution =    -112.79437760 Ry
     hartree contribution      =      66.37153414 Ry
     xc contribution           =     -34.65984536 Ry
     ewald contribution        =    -171.98836291 Ry
     one-center paw contrib.   =     -76.15253068 Ry

     convergence has been achieved in   9 iterations

     Forces acting on atoms (cartesian axes, Ry/au):

     atom    1 type  1   force =     0.00000000    0.00000000    0.00000000

     Total force =     0.000000     Total SCF correction =     0.000000


     Computing stress (Cartesian axis) and pressure

          total   stress  (Ry/bohr**3)                   (kbar)     P=     -259.86
  -0.00176647   0.00000000  -0.00000000         -259.86        0.00       -0.00
   0.00000000  -0.00176647   0.00000000            0.00     -259.86        0.00
  -0.00000000   0.00000000  -0.00176647           -0.00        0.00     -259.86


     Writing all to output data dir ./work/fe_nm_k12/fe_nm_k12.save/ :
     XML data file, charge density, pseudopotentials, collected wavefunctions

     init_run     :      0.72s CPU      0.80s WALL (       1 calls)
     electrons    :      7.43s CPU      8.34s WALL (       1 calls)
     forces       :      0.14s CPU      0.17s WALL (       1 calls)
     stress       :      0.79s CPU      0.89s WALL (       1 calls)

     Called by init_run:
     wfcinit      :      0.19s CPU      0.20s WALL (       1 calls)
     potinit      :      0.16s CPU      0.19s WALL (       1 calls)
     hinit0       :      0.31s CPU      0.31s WALL (       1 calls)

     Called by electrons:
     c_bands      :      4.97s CPU      5.09s WALL (      10 calls)
     sum_band     :      1.05s CPU      1.40s WALL (      10 calls)
     v_of_rho     :      0.16s CPU      0.17s WALL (      10 calls)
     newd         :      0.45s CPU      0.79s WALL (      10 calls)
     PAW_pot      :      0.93s CPU      1.06s WALL (      10 calls)
     mix_rho      :      0.01s CPU      0.01s WALL (      10 calls)

     Called by c_bands:
     init_us_2    :      0.14s CPU      0.14s WALL (    1656 calls)
     cegterg      :      4.78s CPU      4.89s WALL (     720 calls)

     Called by *egterg:
     cdiaghg      :      0.24s CPU      0.24s WALL (    3105 calls)
     h_psi        :      2.74s CPU      2.82s WALL (    3249 calls)
     s_psi        :      0.31s CPU      0.31s WALL (    3249 calls)
     g_psi        :      0.03s CPU      0.03s WALL (    2457 calls)

     Called by h_psi:
     h_psi:calbec :      0.30s CPU      0.31s WALL (    3249 calls)
     vloc_psi     :      2.11s CPU      2.18s WALL (    3249 calls)
                                        0.00s GPU  (    3249 calls)
     add_vuspsi   :      0.31s CPU      0.31s WALL (    3249 calls)

     General routines
     calbec       :      0.56s CPU      0.58s WALL (    5193 calls)
     fft          :      0.15s CPU      0.15s WALL (     154 calls)
     ffts         :      0.03s CPU      0.03s WALL (      20 calls)
     fftw         :      2.04s CPU      2.10s WALL (   60332 calls)
     interpolate  :      0.04s CPU      0.04s WALL (      10 calls)

     Parallel routines

     PWSCF        :      9.15s CPU     10.27s WALL


   This run was terminated on:   2:29:13   5Aug2026            

=------------------------------------------------------------------------------=
   JOB DONE.
=------------------------------------------------------------------------------=
