16
Lattice="4.92 0.0 0.0 -2.46 4.260844986619438 0.0 0.0 0.0 24.0" Properties=species:S:1:pos:R:3 pbc="T T F"
C        0.00000000       0.00000000      10.32500000
C        1.23000000       0.71014083      10.32500000
C       -1.23000000       2.13042249      10.32500000
C        0.00000000       2.84056332      10.32500000
C        2.46000000       0.00000000      10.32500000
C        3.69000000       0.71014083      10.32500000
C        1.23000000       2.13042249      10.32500000
C        2.46000000       2.84056332      10.32500000
B        0.00000000       0.00000000      13.67500000
N        1.23000000       0.71014083      13.67500000
B       -1.23000000       2.13042249      13.67500000
N        0.00000000       2.84056332      13.67500000
B        2.46000000       0.00000000      13.67500000
N        3.69000000       0.71014083      13.67500000
B        1.23000000       2.13042249      13.67500000
N        2.46000000       2.84056332      13.67500000
