9
Lattice="4.92 0.0 0.0 -2.46 4.260844986619438 0.0 0.0 -0.0 25.5" Properties=species:S:1:pos:R:3 pbc="T T F"
C        0.00000000       0.00000000      12.00000000
C        1.23000000       0.71014083      12.00000000
C       -1.23000000       2.13042249      12.00000000
C        0.00000000       2.84056332      12.00000000
C        2.46000000       0.00000000      12.00000000
C        3.69000000       0.71014083      12.00000000
C        1.23000000       2.13042249      12.00000000
C        2.46000000       2.84056332      12.00000000
H        0.00000000       0.00000000      13.50000000
