
     Program PWSCF v.7.5 starts on  4Aug2026 at 22:26:27 

     This program is part of the open-source Quantum ESPRESSO suite
     for quantum simulation of materials; please cite
         "P. Giannozzi et al., J. Phys.:Condens. Matter 21 395502 (2009);
         "P. Giannozzi et al., J. Phys.:Condens. Matter 29 465901 (2017);
         "P. Giannozzi et al., J. Chem. Phys. 152 154105 (2020);
          URL http://www.quantum-espresso.org", 
     in publications or presentations arising from this work. More details at
     http://www.quantum-espresso.org/quote

     Parallel version (MPI & OpenMP), running on      32 processor cores
     Number of MPI processes:                 1
     Threads/MPI process:                    32

     MPI processes distributed on     1 nodes
     61827 MiB available memory on the printing compute node when the environment starts
 
     Reading input from silicon-full-zone-bands.in

     Current dimensions of program PWSCF are:
     Max number of different atomic species (ntypx) = 10
     Max number of k-points (npk) =  40000
     Max angular momentum in pseudopotentials (lmaxx) =  4
     Message from routine input:
     WARNING: "startingwfc" set to atomic+random may spoil restart
 
     Subspace diagonalization in iterative solution of the eigenvalue problem:
     a serial algorithm will be used

 
     G-vector sticks info
     --------------------
     sticks:   dense  smooth     PW     G-vecs:    dense   smooth      PW
     Sum        1159     583    199                26229     9257    1759
 
     Using Slab Decomposition
 


     bravais-lattice index     =            0
     lattice parameter (alat)  =       7.2563  a.u.
     unit-cell volume          =     270.1669 (a.u.)^3
     number of atoms/cell      =            2
     number of atomic types    =            1
     number of electrons       =         8.00
     number of Kohn-Sham states=            8
     kinetic-energy cutoff     =      40.0000  Ry
     charge density cutoff     =     320.0000  Ry
     Exchange-correlation= PBE
                           (   1   4   3   4   0   0   0)

     celldm(1)=   7.256308  celldm(2)=   0.000000  celldm(3)=   0.000000
     celldm(4)=   0.000000  celldm(5)=   0.000000  celldm(6)=   0.000000

     crystal axes: (cart. coord. in units of alat)
               a(1) = (   0.000000   0.707107   0.707107 )  
               a(2) = (   0.707107   0.000000   0.707107 )  
               a(3) = (   0.707107   0.707107   0.000000 )  

     reciprocal axes: (cart. coord. in units 2 pi/alat)
               b(1) = ( -0.707107  0.707107  0.707107 )  
               b(2) = (  0.707107 -0.707107  0.707107 )  
               b(3) = (  0.707107  0.707107 -0.707107 )  


     PseudoPot. # 1 for Si read from file:
     ./pseudo/Si.pbe-n-rrkjus_psl.1.0.0.UPF
     MD5 check sum: 0b0bb1205258b0d07b9f9672cf965d36
     Pseudo is Ultrasoft + core correction, Zval =  4.0
     Generated using "atomic" code by A. Dal Corso  v.5.1
     Using radial grid of 1141 points,  6 beta functions with: 
                l(1) =   0
                l(2) =   0
                l(3) =   1
                l(4) =   1
                l(5) =   2
                l(6) =   2
     Q(r) pseudized with 0 coefficients 


     atomic species   valence    mass     pseudopotential
     Si                4.00    28.08550     Si( 1.00)

     No symmetry found



   Cartesian axes

     site n.     atom                  positions (alat units)
         1        Si     tau(   1) = (   0.0000000   0.0000000   0.0000000  )
         2        Si     tau(   2) = (   0.3535534   0.3535534   0.3535534  )

     number of k points=   260

     Number of k-points >= 100: set verbosity='high' to print them.

     Dense  grid:    26229 G-vectors     FFT dimensions: (  45,  45,  45)

     Smooth grid:     9257 G-vectors     FFT dimensions: (  30,  30,  30)

     Estimated max dynamical RAM per process >      86.99 MB

     Atomic positions and unit cell read from directory:
     ./out/si_cod9013102_fullzone.save/
 

     The potential is recalculated from file :
     ./out/si_cod9013102_fullzone.save/charge-density

     Starting wfcs are    8 randomized atomic wfcs

     Band Structure Calculation
     Davidson diagonalization with overlap

     ethr =  1.25E-12,  avg # of iterations = 45.4

     total cpu time spent up to now is       35.5 secs

     End of band structure calculation

     Number of k-points >= 100: set verbosity='high' to print the bands.

     Writing all to output data dir ./out/si_cod9013102_fullzone.save/ :
     XML data file, pseudopotentials, collected wavefunctions
 
     init_run     :      7.40s CPU      0.28s WALL (       1 calls)
     electrons    :   1047.21s CPU     35.17s WALL (       1 calls)

     Called by init_run:
     wfcinit      :      0.00s CPU      0.00s WALL (       1 calls)
     potinit      :      0.50s CPU      0.02s WALL (       1 calls)
     hinit0       :      4.49s CPU      0.16s WALL (       1 calls)

     Called by electrons:
     c_bands      :   1047.20s CPU     35.17s WALL (       1 calls)
     v_of_rho     :      0.41s CPU      0.02s WALL (       1 calls)
     newd         :      2.39s CPU      0.08s WALL (       1 calls)

     Called by c_bands:
     init_us_2    :      1.15s CPU      0.04s WALL (     260 calls)
     cegterg      :    997.71s CPU     33.51s WALL (     695 calls)

     Called by *egterg:
     cdiaghg      :     19.64s CPU      0.66s WALL (   12065 calls)
     h_psi        :    856.50s CPU     28.69s WALL (   12760 calls)
     s_psi        :     27.76s CPU      0.84s WALL (   12760 calls)
     g_psi        :      4.84s CPU      0.16s WALL (   11805 calls)

     Called by h_psi:
     h_psi:calbec :     23.90s CPU      0.80s WALL (   12760 calls)
     vloc_psi     :    806.32s CPU     26.88s WALL (   12760 calls)
                                        0.00s GPU  (   12760 calls)
     add_vuspsi   :     22.86s CPU      0.77s WALL (   12760 calls)

     General routines
     calbec       :     22.33s CPU      0.75s WALL (   12760 calls)
     fft          :      0.28s CPU      0.01s WALL (      13 calls)
     ffts         :      0.01s CPU      0.00s WALL (       1 calls)
     fftw         :    731.33s CPU     24.21s WALL (  130020 calls)
     interpolate  :      0.04s CPU      0.00s WALL (       1 calls)
     davcio       :      0.72s CPU      0.02s WALL (     520 calls)
 
     Parallel routines
 
     PWSCF        :  17m36.84s CPU     35.57s WALL

 
   This run was terminated on:  22:27: 2   4Aug2026            

=------------------------------------------------------------------------------=
   JOB DONE.
=------------------------------------------------------------------------------=
