17
Lattice="5.727564927611035 0.0 0.0 0.0 4.960216729135935 0.0 0.0 0.0 32.664805770653956" Properties=species:S:1:pos:R:3:tags:I:1 pbc="T T F"
Al       0.00000000       0.00000000      12.00000000        4
Al       2.86378246       0.00000000      12.00000000        4
Al       1.43189123       2.48010836      12.00000000        4
Al       4.29567370       2.48010836      12.00000000        4
Al       1.43189123       0.82670279      14.33826859        3
Al       4.29567370       0.82670279      14.33826859        3
Al       0.00000000       3.30681115      14.33826859        3
Al       2.86378246       3.30681115      14.33826859        3
Al       0.00000000       1.65340558      16.67653718        2
Al       2.86378246       1.65340558      16.67653718        2
Al       1.43189123       4.13351394      16.67653718        2
Al       4.29567370       4.13351394      16.67653718        2
Al       0.00000000       0.00000000      19.01480577        1
Al       2.86378246       0.00000000      19.01480577        1
Al       1.43189123       2.48010836      19.01480577        1
Al       4.29567370       2.48010836      19.01480577        1
H        1.43189123       0.82670279      20.66480577        0
